-------------------------------------------------------------------------

  .g8"""bgd       db      `7MMM.     ,MMF'`7MM"""YMM   .M"""bgd  .M"""bgd
.dP'     `M      ;MM:       MMMb    dPMM    MM    `7  ,MI    "Y ,MI    "Y
dM'       `     ,V^MML      M YM   ,M MM    MM   d    `MMb.     `MMb.
MM             ,M  `MM      M  Mb  M' MM    MMmmMM      `YMMNq.   `YMMNq.
MM.    `7MMF'  A     MA     M  YM.P'  MM    MM   Y  , .     `MM .     `MM
`Mb.     MM   A'     VML    M  `YM'   MM    MM     ,M Mb     dM Mb     dM
  `"bmmm!GO .YAN.   .KEES!.JML. `'  .JMML..JMMmmmmMMM P"Ybmmd"  P"Ybmmd"

-------------------------------------------------------------------------

                       GAMESS for Microsoft Windows
                    http://www.msg.ameslab.gov/gamess

GAMESS References:

"General Atomic and Molecular Electronic Structure System"
M.W.Schmidt, K.K.Baldridge, J.A.Boatz, S.T.Elbert, M.S.Gordon,
J.H.Jensen, S.Koseki, N.Matsunaga, K.A.Nguyen, S.Su, T.L.Windus, M.Dupuis,
J.A.Montgomery J. Comput. Chem., 14, 1347-1363(1993).

"Advances in electronic structure theory: GAMESS a decade later"
M.S.Gordon, M.W.Schmidt pp. 1167-1189, in
"Theory and Applications of Computational Chemistry: the first forty years"
C.E.Dykstra, G.Frenking, K.S.Kim, G.E.Scuseria (editors),
Elsevier, Amsterdam, 2005.
=========================================================================

Contents of rungms.gms file:

GAMESSDIR=C:\Users\Public\gamess-64
AUXDATADIR=C:\Users\Public\gamess-64\auxdata
RESTARTDIR=C:\Users\Public\gamess-64\restart
SCRATCHDIR=C:\Users\Public\gamess-64\scratch

=========================================================================

Job Properties

Input Filename               : caa001.inp
GAMESS Version               : gamess.2020.R2.pgiblas.exe
Compute Processes Requested  : 1
Nodes Required               : 1

=========================================================================

------------------------ GAMESS EXECUTION SCRIPT ------------------------
This job is running on host NHPC-CSUITE-D05 under operating system
Microsoft Windows [Version 10.0.26100.8655] at 27/07/2026 -  9:28:19.28
Available scratch disk at beginning of the job is 46,251,638,784 bytes

EXTBAS=/dev/null
NUCBAS=/dev/null
EXTCAB=/dev/null
POSBAS=/dev/null
DFTBPAR=C:\Users\Public\gamess-64\auxdata\DFTB
ERICFMT=C:\Users\Public\gamess-64\auxdata\ericfmt.dat
MCPPATH=C:\Users\Public\gamess-64\auxdata\MCP
BASPATH=C:\Users\Public\gamess-64\auxdata\BASES
QUANPOL=C:\Users\Public\gamess-64\auxdata\QUANPOL
MAKEFP=C:\Users\Public\gamess-64\restart\caa001.efp
GAMMA=C:\Users\Public\gamess-64\restart\caa001.gamma
TRAJECT=C:\Users\Public\gamess-64\restart\caa001.trj
RESTART=C:\Users\Public\gamess-64\restart\caa001.rst
QMWAVE=C:\Users\Public\gamess-64\restart\caa001.qmw
MDDIP=C:\Users\Public\gamess-64\restart\caa001.dip
OPTHES1=C:\Users\Public\gamess-64\restart\caa001.hs1
OPTHES2=C:\Users\Public\gamess-64\restart\caa001.hs2
XYZ=C:\Users\Public\gamess-64\scratch\caa001.xyz
INPUT=C:\Users\Public\gamess-64\scratch\caa001.F05
PUNCH=C:\Users\Public\gamess-64\restart\caa001.dat
AOINTS=C:\Users\Public\gamess-64\scratch\caa001.F08
MOINTS=C:\Users\Public\gamess-64\scratch\caa001.F09
DICTNRY=C:\Users\Public\gamess-64\scratch\caa001.F10
DRTFILE=C:\Users\Public\gamess-64\scratch\caa001.F11
CIVECTR=C:\Users\Public\gamess-64\scratch\caa001.F12
CASINTS=C:\Users\Public\gamess-64\scratch\caa001.F13
CIINTS=C:\Users\Public\gamess-64\scratch\caa001.F14
WORK15=C:\Users\Public\gamess-64\scratch\caa001.F15
WORK16=C:\Users\Public\gamess-64\scratch\caa001.F16
CSFSAVE=C:\Users\Public\gamess-64\scratch\caa001.F17
FOCKDER=C:\Users\Public\gamess-64\scratch\caa001.F18
WORK19=C:\Users\Public\gamess-64\scratch\caa001.F19
DASORT=C:\Users\Public\gamess-64\scratch\caa001.F20
DIABDAT=C:\Users\Public\gamess-64\scratch\caa001.F21
DFTINTS=C:\Users\Public\gamess-64\scratch\caa001.F21
DFTGRID=C:\Users\Public\gamess-64\scratch\caa001.F22
JKFILE=C:\Users\Public\gamess-64\scratch\caa001.F23
ORDINT=C:\Users\Public\gamess-64\scratch\caa001.F24
EFPIND=C:\Users\Public\gamess-64\scratch\caa001.F25
PCMDATA=C:\Users\Public\gamess-64\scratch\caa001.F26
PCMINTS=C:\Users\Public\gamess-64\scratch\caa001.F27
SVPWRK1=C:\Users\Public\gamess-64\scratch\caa001.F26
SVPWRK2=C:\Users\Public\gamess-64\scratch\caa001.F27
COSCAV=C:\Users\Public\gamess-64\scratch\caa001.F26
COSDATA=C:\Users\Public\gamess-64\restart\caa001.cosmo
COSPOT=C:\Users\Public\gamess-64\restart\caa001.pot
MLTPL=C:\Users\Public\gamess-64\scratch\caa001.F28
MLTPLT=C:\Users\Public\gamess-64\scratch\caa001.F29
DAFL30=C:\Users\Public\gamess-64\scratch\caa001.F30
SOINTX=C:\Users\Public\gamess-64\scratch\caa001.F31
SOINTY=C:\Users\Public\gamess-64\scratch\caa001.F32
SOINTZ=C:\Users\Public\gamess-64\scratch\caa001.F33
SORESC=C:\Users\Public\gamess-64\scratch\caa001.F34
GCILIST=C:\Users\Public\gamess-64\scratch\caa001.F37
HESSIAN=C:\Users\Public\gamess-64\scratch\caa001.F38
QMMMTEI=C:\Users\Public\gamess-64\scratch\caa001.F39
SOCCDAT=C:\Users\Public\gamess-64\scratch\caa001.F40
AABB41=C:\Users\Public\gamess-64\scratch\caa001.F41
BBAA42=C:\Users\Public\gamess-64\scratch\caa001.F42
BBBB43=C:\Users\Public\gamess-64\scratch\caa001.F43
REMD=C:\Users\Public\gamess-64\scratch\caa001.F44
UNV=C:\Users\Public\gamess-64\scratch\caa001.F45
UNPV=C:\Users\Public\gamess-64\scratch\caa001.F46
MCQD50=C:\Users\Public\gamess-64\scratch\caa001.F50
MCQD51=C:\Users\Public\gamess-64\scratch\caa001.F51
MCQD52=C:\Users\Public\gamess-64\scratch\caa001.F52
MCQD53=C:\Users\Public\gamess-64\scratch\caa001.F53
MCQD54=C:\Users\Public\gamess-64\scratch\caa001.F54
MCQD55=C:\Users\Public\gamess-64\scratch\caa001.F55
MCQD56=C:\Users\Public\gamess-64\scratch\caa001.F56
MCQD57=C:\Users\Public\gamess-64\scratch\caa001.F57
MCQD58=C:\Users\Public\gamess-64\scratch\caa001.F58
MCQD59=C:\Users\Public\gamess-64\scratch\caa001.F59
MCQD60=C:\Users\Public\gamess-64\scratch\caa001.F60
MCQD61=C:\Users\Public\gamess-64\scratch\caa001.F61
MCQD62=C:\Users\Public\gamess-64\scratch\caa001.F62
MCQD63=C:\Users\Public\gamess-64\scratch\caa001.F63
MCQD64=C:\Users\Public\gamess-64\scratch\caa001.F64
NMRINT1=C:\Users\Public\gamess-64\scratch\caa001.F61
NMRINT2=C:\Users\Public\gamess-64\scratch\caa001.F62
NMRINT3=C:\Users\Public\gamess-64\scratch\caa001.F63
NMRINT4=C:\Users\Public\gamess-64\scratch\caa001.F64
NMRINT5=C:\Users\Public\gamess-64\scratch\caa001.F65
NMRINT6=C:\Users\Public\gamess-64\scratch\caa001.F66
DCPHFH2=C:\Users\Public\gamess-64\scratch\caa001.F67
DCPHF21=C:\Users\Public\gamess-64\scratch\caa001.F68
ELNUINT=C:\Users\Public\gamess-64\scratch\caa001.F67
NUNUINT=C:\Users\Public\gamess-64\scratch\caa001.F68
GVVPT=C:\Users\Public\gamess-64\scratch\caa001.F69
NUMOCAS=C:\Users\Public\gamess-64\scratch\caa001.F70
NUELCAS=C:\Users\Public\gamess-64\scratch\caa001.F72
RIVMAT=C:\Users\Public\gamess-64\scratch\caa001.F51
RIT2A=C:\Users\Public\gamess-64\scratch\caa001.F52
RIT3A=C:\Users\Public\gamess-64\scratch\caa001.F53
RIT2B=C:\Users\Public\gamess-64\scratch\caa001.F54
RIT3B=C:\Users\Public\gamess-64\scratch\caa001.F55
DEN2P1=C:\Users\Public\gamess-64\scratch\caa001.F70
DEN2P2=C:\Users\Public\gamess-64\scratch\caa001.F71
DEN2P3=C:\Users\Public\gamess-64\scratch\caa001.F72
DEN2P4=C:\Users\Public\gamess-64\scratch\caa001.F73
DEN2NM=C:\Users\Public\gamess-64\scratch\caa001.F74
DEN2OPT=C:\Users\Public\gamess-64\scratch\caa001.F75
GMCREF=C:\Users\Public\gamess-64\scratch\caa001.F70
GMCO2R=C:\Users\Public\gamess-64\scratch\caa001.F71
GMCROC=C:\Users\Public\gamess-64\scratch\caa001.F72
GMCOOC=C:\Users\Public\gamess-64\scratch\caa001.F73
GMCCC0=C:\Users\Public\gamess-64\scratch\caa001.F74
GMCHMA=C:\Users\Public\gamess-64\scratch\caa001.F75
GMCEI1=C:\Users\Public\gamess-64\scratch\caa001.F76
GMCEI2=C:\Users\Public\gamess-64\scratch\caa001.F77
GMCEOB=C:\Users\Public\gamess-64\scratch\caa001.F78
GMCEDT=C:\Users\Public\gamess-64\scratch\caa001.F79
GMCERF=C:\Users\Public\gamess-64\scratch\caa001.F80
GMCHCR=C:\Users\Public\gamess-64\scratch\caa001.F81
GMCGJK=C:\Users\Public\gamess-64\scratch\caa001.F82
GMCGAI=C:\Users\Public\gamess-64\scratch\caa001.F83
GMCGEO=C:\Users\Public\gamess-64\scratch\caa001.F84
GMCTE1=C:\Users\Public\gamess-64\scratch\caa001.F85
GMCTE2=C:\Users\Public\gamess-64\scratch\caa001.F86
GMCHEF=C:\Users\Public\gamess-64\scratch\caa001.F87
GMCMOL=C:\Users\Public\gamess-64\scratch\caa001.F88
GMCMOS=C:\Users\Public\gamess-64\scratch\caa001.F89
GMCWGT=C:\Users\Public\gamess-64\scratch\caa001.F90
GMCRM2=C:\Users\Public\gamess-64\scratch\caa001.F91
GMCRM1=C:\Users\Public\gamess-64\scratch\caa001.F92
GMCR00=C:\Users\Public\gamess-64\scratch\caa001.F93
GMCRP1=C:\Users\Public\gamess-64\scratch\caa001.F94
GMCRP2=C:\Users\Public\gamess-64\scratch\caa001.F95
GMCVEF=C:\Users\Public\gamess-64\scratch\caa001.F96
GMCDIN=C:\Users\Public\gamess-64\scratch\caa001.F97
GMC2SZ=C:\Users\Public\gamess-64\scratch\caa001.F98
GMCCCS=C:\Users\Public\gamess-64\scratch\caa001.F99
CCREST=C:\Users\Public\gamess-64\scratch\caa001.F70
CCDIIS=C:\Users\Public\gamess-64\scratch\caa001.F71
CCINTS=C:\Users\Public\gamess-64\scratch\caa001.F72
CCT1AMP=C:\Users\Public\gamess-64\scratch\caa001.F73
CCT2AMP=C:\Users\Public\gamess-64\scratch\caa001.F74
CCT3AMP=C:\Users\Public\gamess-64\scratch\caa001.F75
CCVM=C:\Users\Public\gamess-64\scratch\caa001.F76
CCVE=C:\Users\Public\gamess-64\scratch\caa001.F77
CCQUADS=C:\Users\Public\gamess-64\scratch\caa001.F78
QUADSVO=C:\Users\Public\gamess-64\scratch\caa001.F79
EOMSTAR=C:\Users\Public\gamess-64\scratch\caa001.F80
EOMVEC1=C:\Users\Public\gamess-64\scratch\caa001.F81
EOMVEC2=C:\Users\Public\gamess-64\scratch\caa001.F82
EOMHC1=C:\Users\Public\gamess-64\scratch\caa001.F83
EOMHC2=C:\Users\Public\gamess-64\scratch\caa001.F84
EOMHHHH=C:\Users\Public\gamess-64\scratch\caa001.F85
EOMPPPP=C:\Users\Public\gamess-64\scratch\caa001.F86
EOMRAMP=C:\Users\Public\gamess-64\scratch\caa001.F87
EOMRTMP=C:\Users\Public\gamess-64\scratch\caa001.F88
EOMDG12=C:\Users\Public\gamess-64\scratch\caa001.F89
MMPP=C:\Users\Public\gamess-64\scratch\caa001.F90
MMHPP=C:\Users\Public\gamess-64\scratch\caa001.F91
MMCIVEC=C:\Users\Public\gamess-64\scratch\caa001.F92
MMCIVC1=C:\Users\Public\gamess-64\scratch\caa001.F93
MMCIITR=C:\Users\Public\gamess-64\scratch\caa001.F94
EOMVL1=C:\Users\Public\gamess-64\scratch\caa001.F95
EOMVL2=C:\Users\Public\gamess-64\scratch\caa001.F96
EOMLVEC=C:\Users\Public\gamess-64\scratch\caa001.F97
EOMHL1=C:\Users\Public\gamess-64\scratch\caa001.F98
EOMHL2=C:\Users\Public\gamess-64\scratch\caa001.F99
CCVVVV=C:\Users\Public\gamess-64\scratch\caa001.F80
AMPROCC=C:\Users\Public\gamess-64\scratch\caa001.F70
ITOPNCC=C:\Users\Public\gamess-64\scratch\caa001.F71
FOCKMTX=C:\Users\Public\gamess-64\scratch\caa001.F72
LAMB23=C:\Users\Public\gamess-64\scratch\caa001.F73
VHHAA=C:\Users\Public\gamess-64\scratch\caa001.F74
VHHBB=C:\Users\Public\gamess-64\scratch\caa001.F75
VHHAB=C:\Users\Public\gamess-64\scratch\caa001.F76
VMAA=C:\Users\Public\gamess-64\scratch\caa001.F77
VMBB=C:\Users\Public\gamess-64\scratch\caa001.F78
VMAB=C:\Users\Public\gamess-64\scratch\caa001.F79
VMBA=C:\Users\Public\gamess-64\scratch\caa001.F80
VHPRAA=C:\Users\Public\gamess-64\scratch\caa001.F81
VHPRBB=C:\Users\Public\gamess-64\scratch\caa001.F82
VHPRAB=C:\Users\Public\gamess-64\scratch\caa001.F83
VHPLAA=C:\Users\Public\gamess-64\scratch\caa001.F84
VHPLBB=C:\Users\Public\gamess-64\scratch\caa001.F85
VHPLAB=C:\Users\Public\gamess-64\scratch\caa001.F86
VHPLBA=C:\Users\Public\gamess-64\scratch\caa001.F87
VEAA=C:\Users\Public\gamess-64\scratch\caa001.F88
VEBB=C:\Users\Public\gamess-64\scratch\caa001.F89
VEAB=C:\Users\Public\gamess-64\scratch\caa001.F90
VEBA=C:\Users\Public\gamess-64\scratch\caa001.F91
VPPPP=C:\Users\Public\gamess-64\scratch\caa001.F92
INTERM1=C:\Users\Public\gamess-64\scratch\caa001.F93
INTERM2=C:\Users\Public\gamess-64\scratch\caa001.F94
INTERM3=C:\Users\Public\gamess-64\scratch\caa001.F95
ITSPACE=C:\Users\Public\gamess-64\scratch\caa001.F96
INSTART=C:\Users\Public\gamess-64\scratch\caa001.F97
ITSPC3=C:\Users\Public\gamess-64\scratch\caa001.F98
AOINTS=C:\Users\Public\gamess-64\scratch\caa001.F08
OLI201=C:\Users\Public\gamess-64\scratch\caa001.F201
OLI202=C:\Users\Public\gamess-64\scratch\caa001.F202
OLI203=C:\Users\Public\gamess-64\scratch\caa001.F203
OLI204=C:\Users\Public\gamess-64\scratch\caa001.F204
OLI205=C:\Users\Public\gamess-64\scratch\caa001.F205
OLI206=C:\Users\Public\gamess-64\scratch\caa001.F206
OLI207=C:\Users\Public\gamess-64\scratch\caa001.F207
OLI208=C:\Users\Public\gamess-64\scratch\caa001.F208
OLI209=C:\Users\Public\gamess-64\scratch\caa001.F209
OLI210=C:\Users\Public\gamess-64\scratch\caa001.F210
OLI211=C:\Users\Public\gamess-64\scratch\caa001.F211
OLI212=C:\Users\Public\gamess-64\scratch\caa001.F212
OLI213=C:\Users\Public\gamess-64\scratch\caa001.F213
OLI214=C:\Users\Public\gamess-64\scratch\caa001.F214
OLI215=C:\Users\Public\gamess-64\scratch\caa001.F215
OLI216=C:\Users\Public\gamess-64\scratch\caa001.F216
OLI217=C:\Users\Public\gamess-64\scratch\caa001.F217
OLI218=C:\Users\Public\gamess-64\scratch\caa001.F218
OLI219=C:\Users\Public\gamess-64\scratch\caa001.F219
OLI220=C:\Users\Public\gamess-64\scratch\caa001.F220
OLI221=C:\Users\Public\gamess-64\scratch\caa001.F221
OLI222=C:\Users\Public\gamess-64\scratch\caa001.F222
OLI223=C:\Users\Public\gamess-64\scratch\caa001.F223
OLI224=C:\Users\Public\gamess-64\scratch\caa001.F224
OLI225=C:\Users\Public\gamess-64\scratch\caa001.F225
OLI226=C:\Users\Public\gamess-64\scratch\caa001.F226
OLI227=C:\Users\Public\gamess-64\scratch\caa001.F227
OLI228=C:\Users\Public\gamess-64\scratch\caa001.F228
OLI229=C:\Users\Public\gamess-64\scratch\caa001.F229
OLI230=C:\Users\Public\gamess-64\scratch\caa001.F230
OLI231=C:\Users\Public\gamess-64\scratch\caa001.F231
OLI232=C:\Users\Public\gamess-64\scratch\caa001.F232
OLI233=C:\Users\Public\gamess-64\scratch\caa001.F233
OLI234=C:\Users\Public\gamess-64\scratch\caa001.F234
OLI235=C:\Users\Public\gamess-64\scratch\caa001.F235
OLI236=C:\Users\Public\gamess-64\scratch\caa001.F236
OLI237=C:\Users\Public\gamess-64\scratch\caa001.F237
OLI238=C:\Users\Public\gamess-64\scratch\caa001.F238
OLI239=C:\Users\Public\gamess-64\scratch\caa001.F239
DCSUB=C:\Users\Public\gamess-64\scratch\caa001.F250
DCVEC=C:\Users\Public\gamess-64\scratch\caa001.F251
DCEIG=C:\Users\Public\gamess-64\scratch\caa001.F252
DCDM=C:\Users\Public\gamess-64\scratch\caa001.F253
DCDMO=C:\Users\Public\gamess-64\scratch\caa001.F254
DCQ=C:\Users\Public\gamess-64\scratch\caa001.F255
DCW=C:\Users\Public\gamess-64\scratch\caa001.F256
DCEDM=C:\Users\Public\gamess-64\scratch\caa001.F257
LHYPWRK=C:\Users\Public\gamess-64\scratch\caa001.F297
LHYPWK2=C:\Users\Public\gamess-64\scratch\caa001.F298
BONDDPF=C:\Users\Public\gamess-64\scratch\caa001.F299
VB2000PATH=C:\Users\Public\gamess-64\vb2000
GMSJOBNAME=caa001
CIMFILE=C:\Users\Public\gamess-64\restart\caa001.cim
CIMDMN=C:\Users\Public\gamess-64\restart\caa001.dmn
CIMDCT=C:\Users\Public\gamess-64\scratch\caa001.Fcdt
CIMAOI=C:\Users\Public\gamess-64\scratch\caa001.Fcao
CIMMOI=C:\Users\Public\gamess-64\scratch\caa001.Fcmo
CASINO=C:\Users\Public\gamess-64\restart\caa001.casino

=========================================================================

Searching for restart files from a previous caa001 run.

None found.

=========================================================================
Microsoft MPI (MS-MPI) will be running GAMESS on 1 node(s).
The binary will be kicked off by 'mpiexec' is gamess.2020.R2.pgiblas.exe
MS-MPI will run 1 compute process(es) and 1 data server(s).

          *******************************************************
          *                                                     *
          *          GAMESS VERSION = 30 SEP 2020 (R2)          *
          *                                                     *
          *              doi.org/10.1063/5.0005188              *
          *                                                     *
          *************** 64 BIT WINDOWS VERSION ****************

  GAMESS HAS BEEN MADE POSSIBLE WITH IMPORTANT CONTRIBUTIONS FROM
  THE FOLLOWING INDIVIDUALS (IN ALPHABETICAL ORDER):

     IVANA ADAMOVIC, CHRISTINE AIKENS, TOMOKO AKAMA,
     YURI ALEXEEV, YURIKO AOKI, POOJA ARORA, TOSHIO ASADA,
     ANDREY ASADCHEV, KIM K. BALDRIDGE, PRADIPTA BANDYOPADHYAY,
     MARIA BARYSZ, ROB BELL, JONATHAN BENTZ, COLLEEN BERTONI,
     JERRY A. BOATZ, BRETT BODE, KURT BRORSEN, KURT R. BRORSEN,
     LAIMUTIS BYTAUTAS, CALEB CARLIN, LAURA CARRINGTON,
     GALINA CHABAN, BENOIT CHAMPAGNE, WEI CHEN, MAHITO CHIBA,
     DAN CHIPMAN, CHEOL HO CHOI, TANNER CULPITT,
     DIPAYAN DATTA, PAUL DAY, ALBERT DEFUSCO,
     NUWAN DESILVA, J. EMILIANO DEUSTUA,
     TIM DUDLEY, MICHEL DUPUIS, STEVEN T. ELBERT,
     DMITRI FEDOROV, ALEX FINDLATER, GRAHAM FLETCHER,
     MARK FREITAG, CHRISTIAN FRIEDL, DAVID GARMER,
     IGOR S. GERASIMOV, KURT GLAESEMANN, MARK S. GORDON,
     JEFFREY GOUR, FENG LONG GU, EMILIE B. GUIDEZ,
     ANASTASIA GUNINA, SHARON HAMMES-SCHIFFER, MASATAKE HARUTA,
     KIMIHIKO HIRAO, YASUHIRO IKABATA, TZVETELIN IORDANOV,
     STEPHAN IRLE, KAZUYA ISHIMURA, JOE IVANIC, FRANK JENSEN,
     JAN H. JENSEN, VISVALDAS KAIRYS, MUNEAKI KAMIYA,
     MICHIO KATOUDA, NAOAKI KAWAKAMI, DAN KEMP, BERNARD KIRTMAN,
     KAZUO KITAURA, MARIUSZ KLOBUKOWSKI, MASATO KOBAYASHI,
     PRAKASHAN KORAMBATH, JACEK KORCHOWIEC, SHIRO KOSEKI,
     KAROL KOWALSKI, JIMMY KROMANN, STANISLAW KUCHARSKI,
     HENRY KURTZ, SAROM SOK LEANG, HUI LI, SHUHUA LI, WEI LI,
     JESSE LUTZ, ALEKSANDR O. LYKHIN, MARCIN MAKOWSKI,
     JOANI MATO, NIKITA MATSUNAGA, BENEDETTA MENNUCCI,
     GRANT MERRILL, NORIYUKI MINEZAWA, VLADIMIR MIRONOV,
     EISAKU MIYOSHI, JOHN A. MONTGOMERY JR., HIROTOSHI MORI,
     JONATHAN MULLIN, MONIKA MUSIAL, SHIGERU NAGASE,
     TAKESHI NAGATA, HIROMI NAKAI, TAKAHITO NAKAJIMA,
     YUYA NAKAJIMA, HARUYUKI NAKANO, HIROYA NAKATA, SEAN NEDD,
     HEATHER NETZLOFF, KIET A. NGUYEN, YOSHIO NISHIMOTO,
     BOSILJKA NJEGIC, RYAN OLSON, MIKE PAK, ROBERTO PEVERATI,
     BUU PHAM, PIOTR PIECUCH, ANNA POMOGAEVA, DAVID POOLE,
     SPENCER PRUITT, OLIVIER QUINET, LUKE ROSKOP,
     KLAUS RUEDENBERG, ANDREW SAND, TOSAPORN SATTASATHUCHANA,
     NOZOMI SAWADA, MICHAEL W. SCHMIDT, PATRICK E. SCHNEIDER,
     JUNJI SEINO, PRACHI SHARMA, JUN SHEN, JIM SHOEMAKER,
     YINAN SHU, DEJUN SI, JONATHAN SKONE, LYUDMILA SLIPCHENKO,
     TONY SMITH, JIE SONG, MARK SPACKMAN, CASPER STEINMANN,
     WALT STEVENS, PEIFENG SU, SHUJUN SU, CHET SWALINA,
     TETSUYA TAKETSUGU, ZHEN TAO, NANDUN THELLAMUREGE
     SEIKEN TOKURA, JACOPO TOMASI, TSUGUKI TOUMA, TAKAO TSUNEDA,
     HIROAKI UMEDA, JORGE LUIS GALVEZ VALLEJO, YALI WANG,
     SIMON WEBB, AARON WEST, THERESA L. WINDUS, MARTA WLOCH,
     PENG XU, KIYOSHI YAGI, SUSUMU YANAGISAWA, YANG YANG,
     SOOHAENG YOO, TAKESHI YOSHIKAWA, FEDERICO ZAHARIEV,
     TOBY ZENG

  WHO ARE SUPPORTED BY THEIR INSTITUTION/UNIVERSITY/COMPANY/GROUP
  (IN ALPHABETICAL ORDER):

     EP ANALYTICS, FACULTES UNIVERSITAIRES NOTRE-DAME DE LA PAIX,
     INSTITUTE FOR MOLECULAR SCIENCE, IOWA STATE UNIVERSITY,
     JACKSON STATE UNIVERSITY, JOHANNES KEPLER UNIVERSITY LINZ,
     KYUSHU UNIVERSITY, MICHIGAN STATE UNIVERSITY,
     MIE UNIVERSITY, MOSCOW STATE UNIVERSITY,
     N. COPERNICUS UNIVERSITY, NAGOYA UNIVERSITY,
     NANJING UNIVERSITY, NAT. INST. OF ADVANCED INDUSTRIAL
     SCIENCE AND TECHNOLOGY, NATIONAL INST. OF STANDARDS AND
     TECHNOLOGY, NESMEYANOV INSTITUTE OF ORGANOELEMENT COMPOUNDS
     OF RUSSIAN ACADEMY OF SCIENCES, OSAKA PREFECTURE UNIVERSITY,
     PENNSYLVANIA STATE UNIVERSITY, TOKYO INSTITUTE OF TECHNOLOGY,
     UNIVERSITY OF AARHUS, UNIVERSITY OF ALBERTA,
     UNIVERSITY OF CALIFORNIA AT SANTA BARBARA,
     UNIVERSITY OF COPENHAGEN, UNIVERSITY OF IOWA,
     UNIVERSITY OF MEMPHIS, UNIVERSITY OF MINNESOTA,
     UNIVERSITY OF NEBRASKA, UNIVERSITY OF NEW ENGLAND,
     UNIVERSITY OF NOTRE DAME, UNIVERSITY OF PISA,
     UNIVERSITY OF SILESIA, UNIVERSITY OF TOKYO,
     UNIVERSITY OF ZURICH, WASEDA UNIVERSITY, YALE UNIVERSITY

  GAMESS SOFTWARE MANAGEMENT TEAM FOR THIS RELEASE:
     MARK S. GORDON (TEAM LEAD),
     BRETT BODE (SENIOR ADVISOR),
     GIUSEPPE BARCA,
     COLLEEN BERTONI,
     KRISTOPHER KEIPERT (ADVISOR),
     SAROM S. LEANG (DEVELOPMENT LEAD),
     BUU PHAM,
     JORGE LUIS GALVEZ VALLEJO (WEBSITE ADMINISTRATOR),
     PENG XU

 EXECUTION OF GAMESS BEGUN 09:28:25 27-JUL-2026    

            ECHO OF THE FIRST FEW INPUT CARDS -
 INPUT CARD>! C2H7O3Cl | Equilibrium Geometry | AM1/3-21G                                   
 INPUT CARD> $BASIS GBASIS=AM1 $END                                                         
 INPUT CARD> $CONTRL SCFTYP=RHF RUNTYP=OPTIMIZE ICHARG=0 MULT=1 $END                        
 INPUT CARD> $STATPT OPTTOL=0.0001 NSTEP=20 $END                                            
 INPUT CARD> $SYSTEM MWORDS=25 MEMDDI=24 $END                                               
 INPUT CARD>                                                                                
 INPUT CARD> $DATA                                                                          
 INPUT CARD>Chloroacetaldehyde and 2 x water                                                
 INPUT CARD>C1                                                                              
 INPUT CARD>Cl   17.0   1.22302   0.25007   0.41505                                         
 INPUT CARD>C     6.0   2.79490  -0.06206  -0.34511                                         
 INPUT CARD>C     6.0   3.04194   1.01318  -1.36213                                         
 INPUT CARD>O     8.0   3.42460   0.79340  -2.51229                                         
 INPUT CARD>H     1.0   2.77304  -1.04543  -0.81997                                         
 INPUT CARD>H     1.0   3.57120  -0.02477   0.42209                                         
 INPUT CARD>H     1.0   2.93954   2.05077  -1.00127                                         
 INPUT CARD>O     8.0   4.58611  -1.69636  -4.14257                                         
 INPUT CARD>H     1.0   4.60795  -0.98345  -3.48384                                         
 INPUT CARD>H     1.0   4.13845  -1.22512  -4.87899                                         
 INPUT CARD>O     8.0   3.25732   0.46702  -5.20788                                         
 INPUT CARD>H     1.0   2.82355   1.22474  -5.63446                                         
 INPUT CARD>H     1.0   3.24048   0.72336  -4.26122                                         
 INPUT CARD> $END                                                                           
   25000000 WORDS OF MEMORY AVAILABLE

     BASIS OPTIONS
     -------------
     GBASIS=AM1          IGAUSS=       0      POLAR=NONE    
     NDFUNC=       0     NFFUNC=       0     DIFFSP=       F
     NPFUNC=       0      DIFFS=       F     BASNAM=        


     RUN TITLE
     ---------
 Chloroacetaldehyde and 2 x water                                                

 THE POINT GROUP OF THE MOLECULE IS C1      
 THE ORDER OF THE PRINCIPAL AXIS IS     0

 ATOM      ATOMIC                      COORDINATES (BOHR)
           CHARGE         X                   Y                   Z
 CL         17.0     2.3111726775        0.4725637777        0.7843307712
 C           6.0     5.2815951631       -0.1172763948       -0.6521633356
 C           6.0     5.7484330711        1.9146325762       -2.5740524597
 O           8.0     6.4715556176        1.4993085987       -4.7475397017
 H           1.0     5.2402857530       -1.9755762393       -1.5495186182
 H           1.0     6.7485894474       -0.0468085127        0.7976344422
 H           1.0     5.5549251299        3.8753933638       -1.8921259397
 O           8.0     8.6664912496       -3.2056555765       -7.8283221850
 H           1.0     8.7077628651       -1.8584510226       -6.5835029851
 H           1.0     7.8205365139       -2.3151411021       -9.2199541968
 O           8.0     6.1554422543        0.8825398308       -9.8414661769
 H           1.0     5.3357358126        2.3144230062      -10.6475854888
 H           1.0     6.1236192687        1.3669521905       -8.0525381734

          INTERNUCLEAR DISTANCES (ANGS.)
          ------------------------------

                1 CL         2 C          3 C          4 O          5 H     

   1 CL      0.0000000    1.7737179 *  2.6550284 *  3.7029018    2.3677324 *
   2 C       1.7737179 *  0.0000000    1.5004997 *  2.4135043 *  1.0922392 *
   3 C       2.6550284 *  1.5004997 *  0.0000000    1.2319091 *  2.1457213 *
   4 O       3.7029018    2.4135043 *  1.2319091 *  0.0000000    2.5825904 *
   5 H       2.3677324 *  1.0922392 *  2.1457213 *  2.5825904 *  0.0000000  
   6 H       2.3642199 *  1.0920751 *  2.1309381 *  3.0498327    1.7948591 *
   7 H       2.8626777 *  2.2170966 *  1.1033126 *  2.0247084 *  3.1059695  
   8 O       5.9892290    4.5055601    4.1781473    3.1946554    3.8406514  
   9 H       5.3085465    3.7400182    3.3076535    2.3455111 *  3.2352650  
  10 H       6.2211556    4.8696923    4.3105249    3.1914376    4.2862893  
  11 O       5.9835429    4.9132769    3.8903049    2.7204250 *  4.6664533  
  12 H       6.3331074    5.4437026    4.2831362    3.2086229    5.3231135  
  13 H       5.1148460    4.0188734    2.9202973 *  1.7599892 *  3.8973478  

                6 H          7 H          8 O          9 H         10 H     

   1 CL      2.3642199 *  2.8626777 *  5.9892290    5.3085465    6.2211556  
   2 C       1.0920751 *  2.2170966 *  4.5055601    3.7400182    4.8696923  
   3 C       2.1309381 *  1.1033126 *  4.1781473    3.3076535    4.3105249  
   4 O       3.0498327    2.0247084 *  3.1946554    2.3455111 *  3.1914376  
   5 H       1.7948591 *  3.1059695    3.8406514    3.2352650    4.2862893  
   6 H       0.0000000    2.5947667 *  4.9659215    4.1533369    5.4648021  
   7 H       2.5947667 *  0.0000000    5.1594517    4.2606615    5.2158943  
   8 O       4.9659215    5.1594517    0.0000000    0.9708980 *  0.9822327 *
   9 H       4.1533369    4.2606615    0.9708980 *  0.0000000    1.4917366 *
  10 H       5.4648021    5.2158943    0.9822327 *  1.4917366 *  0.0000000  
  11 O       5.6601184    4.5060865    2.7533219 *  2.6268572 *  1.9359485 *
  12 H       6.2291294    4.7076776    3.7235976    3.5616503    2.8812343 *
  13 H       4.7542052    3.5326840    2.7712529 *  2.3210976 *  2.2326138 *

               11 O         12 H         13 H     

   1 CL      5.9835429    6.3331074    5.1148460  
   2 C       4.9132769    5.4437026    4.0188734  
   3 C       3.8903049    4.2831362    2.9202973 *
   4 O       2.7204250 *  3.2086229    1.7599892 *
   5 H       4.6664533    5.3231135    3.8973478  
   6 H       5.6601184    6.2291294    4.7542052  
   7 H       4.5060865    4.7076776    3.5326840  
   8 O       2.7533219 *  3.7235976    2.7712529 *
   9 H       2.6268572 *  3.5616503    2.3210976 *
  10 H       1.9359485 *  2.8812343 *  2.2326138 *
  11 O       0.0000000    0.9717338 *  0.9808970 *
  12 H       0.9717338 *  0.0000000    1.5201976 *
  13 H       0.9808970 *  1.5201976 *  0.0000000  

  * ... LESS THAN  3.000


 TOTAL NUMBER OF BASIS SET SHELLS             =   13
 NUMBER OF CARTESIAN GAUSSIAN BASIS FUNCTIONS =   31
 NUMBER OF ELECTRONS                          =   40
 CHARGE OF MOLECULE                           =    0
 SPIN MULTIPLICITY                            =    1
 NUMBER OF OCCUPIED ORBITALS (ALPHA)          =   20
 NUMBER OF OCCUPIED ORBITALS (BETA )          =   20
 TOTAL NUMBER OF ATOMS                        =   13
 THE NUCLEAR REPULSION ENERGY IS      278.1561650235

 THE PARAMETERS USED IN THIS CALCULATION ARE DESCRIBED IN:

  H: (AM1): M.J.S. DEWAR ET AL, J. AM. CHEM. SOC. 107 3902-3909 (1985)          
  C: (AM1): M.J.S. DEWAR ET AL, J. AM. CHEM. SOC. 107 3902-3909 (1985)          
  O: (AM1): M.J.S. DEWAR ET AL, J. AM. CHEM. SOC. 107 3902-3909 (1985)          
 CL: (AM1): M.J.S. DEWAR AND E. G. ZOEBISCH, THEOCHEM, 180, 1 (1988).           

 THERE ARE    6 HEAVY AND    7 LIGHT ATOMS,
 YIELDING A TOTAL OF      1941 MOPAC 2E- INTEGRALS.

     $CONTRL OPTIONS
     ---------------
 SCFTYP=RHF          RUNTYP=OPTIMIZE     EXETYP=RUN     
 MPLEVL=       0     CITYP =NONE         CCTYP =NONE         VBTYP =NONE    
 DFTTYP=NONE         TDDFT =NONE    
 MULT  =       1     ICHARG=       0     NZVAR =       0     COORD =UNIQUE  
 PP    =NONE         RELWFN=NONE         LOCAL =NONE         NUMGRD=       F
 ISPHER=      -1     NOSYM =       0     MAXIT =      30     UNITS =ANGS    
 PLTORB=       F     MOLPLT=       F     AIMPAC=       F     FRIEND=        
 NPRINT=       7     IREST =       0     GEOM  =INPUT   
 NORMF =       0     NORMP =       0     ITOL  =      20     ICUT  =       9
 INTTYP=BEST         GRDTYP=BEST         QMTTOL= 1.0E-06

     $SYSTEM OPTIONS
     ---------------
  REPLICATED MEMORY=    25000000 WORDS (ON EVERY NODE).
 DISTRIBUTED MEMDDI=          24 MILLION WORDS IN AGGREGATE,
 MEMDDI DISTRIBUTED OVER   1 PROCESSORS IS    24000000 WORDS/PROCESSOR.
 TOTAL MEMORY REQUESTED ON EACH PROCESSOR=    49000000 WORDS.
 TIMLIM=      525600.00 MINUTES, OR     365.0 DAYS.
 PARALL= F  BALTYP=  DLB     KDIAG=    0  COREFL= F
 MXSEQ2=     300 MXSEQ3=     150  mem10=         0  mem22=         0

 Using Gaussians for PCM contribution to MEP, params: 0.10000E+01 0.10000E-07

          ----------------
          PROPERTIES INPUT
          ----------------

     MOMENTS            FIELD           POTENTIAL          DENSITY
 IEMOM =       1   IEFLD =       0   IEPOT =       0   IEDEN =       0
 WHERE =COMASS     WHERE =NUCLEI     WHERE =NUCLEI     WHERE =NUCLEI  
 OUTPUT=BOTH       OUTPUT=BOTH       OUTPUT=BOTH       OUTPUT=BOTH    
 IEMINT=       0   IEFINT=       0                     IEDINT=       0
                                                       MORB  =       0
          EXTRAPOLATION IN EFFECT
 ORBITAL PRINTING OPTION: NPREO=     1    31     2     1

     -------------------------------
     INTEGRAL TRANSFORMATION OPTIONS
     -------------------------------
     NWORD  =            0
     CUTOFF = 1.0E-09     MPTRAN =       0
     DIRTRF =       F     AOINTS =DUP     

          ----------------------
          INTEGRAL INPUT OPTIONS
          ----------------------
 NOPK  =       1 NORDER=       0 SCHWRZ=       T

     ------------------------------------------
     THE POINT GROUP IS C1 , NAXIS= 0, ORDER= 1
     ------------------------------------------

     DIMENSIONS OF THE SYMMETRY SUBSPACES ARE
 A   =   31

 ..... DONE SETTING UP THE RUN .....
 STEP CPU TIME =     0.01 TOTAL CPU TIME =          0.0 (      0.0 MIN)
 TOTAL WALL CLOCK TIME=          0.0 SECONDS, CPU UTILIZATION IS   100.00%


          -----------------------------
          STATIONARY POINT LOCATION RUN
          -----------------------------

 OBTAINING INITIAL HESSIAN, HESS=GUESS   
 CARTESIAN COORDINATE OPTIMIZATION USING BADGER'S RULE FORCE CONSTANT GUESS

          PARAMETERS CONTROLLING GEOMETRY SEARCH ARE
          METHOD =QA                  UPHESS =BFGS    
          NNEG   =         0          NFRZ   =         0
          NSTEP  =        20          IFOLOW =         1
          HESS   =GUESS               RESTAR =         F
          IHREP  =         0          HSSEND =         F
          NPRT   =         0          NPUN   =         0
          OPTTOL = 1.000E-04          RMIN   = 1.500E-03
          RMAX   = 1.000E-01          RLIM   = 7.000E-02
          DXMAX  = 3.000E-01          PURIFY =         F
          MOVIE  =         F          TRUPD  =         T
          TRMAX  = 5.000E-01          TRMIN  = 5.000E-02
          ITBMAT =         5          STPT   =         F
          STSTEP = 1.000E-02          PROJCT=          T

 BEGINNING GEOMETRY SEARCH POINT NSERCH=   0 ...

 COORDINATES OF ALL ATOMS ARE (ANGS)
   ATOM   CHARGE       X              Y              Z
 ------------------------------------------------------------
 CL         17.0   1.2230200000   0.2500700000   0.4150500000
 C           6.0   2.7949000000  -0.0620600000  -0.3451100000
 C           6.0   3.0419400000   1.0131800000  -1.3621300000
 O           8.0   3.4246000000   0.7934000000  -2.5122900000
 H           1.0   2.7730400000  -1.0454300000  -0.8199700000
 H           1.0   3.5712000000  -0.0247700000   0.4220900000
 H           1.0   2.9395400000   2.0507700000  -1.0012700000
 O           8.0   4.5861100000  -1.6963600000  -4.1425700000
 H           1.0   4.6079500000  -0.9834500000  -3.4838400000
 H           1.0   4.1384500000  -1.2251200000  -4.8789900000
 O           8.0   3.2573200000   0.4670200000  -5.2078800000
 H           1.0   2.8235500000   1.2247400000  -5.6344600000
 H           1.0   3.2404800000   0.7233600000  -4.2612200000

          ********************
          1 ELECTRON INTEGRALS
          ********************

          **************************
          1 AND 2 ELECTRON INTEGRALS
          **************************

 MOPAC ONE- AND TWO-ELECTRON INTEGRALS REQUIRE      2933 WORDS.
 ...... END OF ONE- AND TWO-ELECTRON INTEGRALS......
 STEP CPU TIME =     0.00 TOTAL CPU TIME =          0.0 (      0.0 MIN)
 TOTAL WALL CLOCK TIME=          0.0 SECONDS, CPU UTILIZATION IS   100.00%
 ...... END OF ONE-ELECTRON INTEGRALS ......
 STEP CPU TIME =     0.00 TOTAL CPU TIME =          0.0 (      0.0 MIN)
 TOTAL WALL CLOCK TIME=          0.0 SECONDS, CPU UTILIZATION IS   100.00%

          -------------
          GUESS OPTIONS
          -------------
          GUESS =HUCKEL            NORB  =       0          NORDER=       0
          MIX   =       F          PRTMO =       F          PUNMO =       F
          TOLZ  = 1.0E-08          TOLE  = 1.0E-05
          SYMDEN=       F          PURIFY=       F

 INITIAL GUESS ORBITALS GENERATED BY HUCKEL   ROUTINE.

 SYMMETRIES FOR INITIAL GUESS ORBITALS FOLLOW.   BOTH SET(S).
    20 ORBITALS ARE OCCUPIED (    0 CORE ORBITALS).
     1=A        2=A        3=A        4=A        5=A        6=A        7=A   
     8=A        9=A       10=A       11=A       12=A       13=A       14=A   
    15=A       16=A       17=A       18=A       19=A       20=A       21=A   
    22=A       23=A       24=A       25=A       26=A       27=A       28=A   
    29=A       30=A   
 ...... END OF INITIAL ORBITAL SELECTION ......
 STEP CPU TIME =     0.00 TOTAL CPU TIME =          0.0 (      0.0 MIN)
 TOTAL WALL CLOCK TIME=          0.0 SECONDS, CPU UTILIZATION IS   100.00%

          --------------------------
               R-AM1 SCF CALCULATION
          --------------------------

     NUCLEAR ENERGY =       121.3483421908
     MAXIT =   30     NPUNCH=    2
     EXTRAP=T  DAMP=F  SHIFT=F  RSTRCT=F  DIIS=F  DEM=F  SOSCF=F
     DENSITY MATRIX CONV=  1.00E-05
     MEMORY REQUIRED FOR RHF ITERS=      9310 WORDS.

 ITER EX DEM     TOTAL ENERGY        E CHANGE  DENSITY CHANGE    DIIS ERROR
   1  0  0      -61.5137200406   -61.5137200406   0.288815861   0.000000000
   2  1  0      -62.0172068894    -0.5034868488   0.080360816   0.000000000
   3  2  0      -62.0546987483    -0.0374918589   0.036042171   0.000000000
   4  3  0      -62.0590392993    -0.0043405510   0.015352343   0.000000000
   5  0  0      -62.0597056336    -0.0006663343   0.011395316   0.000000000
   6  1  0      -62.0598569924    -0.0001513588   0.000536560   0.000000000
   7  2  0      -62.0598575321    -0.0000005397   0.000397282   0.000000000
   8  3  0      -62.0598577401    -0.0000002080   0.000292364   0.000000000
   9  4  0      -62.0598578370    -0.0000000969   0.000214492   0.000000000
  10  5  0      -62.0598578855    -0.0000000486   0.000157087   0.000000000
  11  6  0      -62.0598579107    -0.0000000252   0.000114928   0.000000000
  12  7  0      -62.0598579239    -0.0000000132   0.000084034   0.000000000
  13  8  0      -62.0598579310    -0.0000000070   0.000061424   0.000000000
  14  9  0      -62.0598579347    -0.0000000037   0.000044890   0.000000000
  15 10  0      -62.0598579367    -0.0000000020   0.000032803   0.000000000
  16 11  0      -62.0598579377    -0.0000000011   0.000023970   0.000000000
  17 12  0      -62.0598579383    -0.0000000006   0.000017516   0.000000000
  18 13  0      -62.0598579386    -0.0000000003   0.000012800   0.000000000

          ----------------
          ENERGY CONVERGED
          ----------------
     TIME TO FORM FOCK OPERATORS=       0.0 SECONDS (       0.0 SEC/ITER)
     TIME TO SOLVE SCF EQUATIONS=       0.0 SECONDS (       0.0 SEC/ITER)

 FINAL R-AM1 ENERGY IS      -62.0598579386 AFTER  18 ITERATIONS

 HEAT OF FORMATION IS      -166.19377 KCAL/MOL
 

          ------------
          EIGENVECTORS
          ------------

                      1          2          3          4          5
                   -1.4793    -1.3926    -1.3334    -1.2918    -1.1612
                     A          A          A          A          A   
    1  CL 1  S    0.153166   0.934300   0.041197  -0.006466  -0.286113
    2  CL 1  X    0.045741   0.068587  -0.003824   0.001357   0.185168
    3  CL 1  Y   -0.001693  -0.011106  -0.000354  -0.000245  -0.020471
    4  CL 1  Z   -0.030085  -0.032894   0.002810  -0.000762  -0.097342
    5  C  2  S    0.218566   0.203379  -0.021028   0.006593   0.633854
    6  C  2  X    0.005639  -0.098148  -0.006958   0.001485   0.047815
    7  C  2  Y    0.052951   0.020984  -0.006462   0.000070   0.068450
    8  C  2  Z   -0.065210   0.054412   0.010378  -0.001751  -0.060852
    9  C  3  S    0.493763  -0.024591  -0.053971   0.003403   0.311551
   10  C  3  X    0.070219  -0.043043  -0.008504   0.001369  -0.071037
   11  C  3  Y   -0.072688  -0.015290   0.006922  -0.003325  -0.106712
   12  C  3  Z   -0.204211   0.105397   0.015025   0.003041   0.272462
   13  O  4  S    0.730200  -0.203071  -0.032880  -0.006502  -0.376269
   14  O  4  X   -0.076231   0.012898   0.007013   0.005235  -0.007000
   15  O  4  Y    0.036736  -0.015119  -0.007680  -0.007090  -0.037782
   16  O  4  Z    0.225426  -0.040836  -0.050953   0.006888   0.041573
   17  H  5  S    0.077587   0.058304  -0.006775   0.003975   0.227804
   18  H  6  S    0.068101   0.063440  -0.007296   0.002510   0.245284
   19  H  7  S    0.124412   0.004200  -0.014443   0.000459   0.121770
   20  O  8  S    0.022727  -0.013471   0.359317   0.822424   0.003279
   21  O  8  X   -0.001644   0.000969  -0.024892  -0.043089  -0.000421
   22  O  8  Y    0.006053  -0.002950   0.064752   0.127728  -0.000040
   23  O  8  Z    0.001474  -0.000058  -0.006748  -0.001185  -0.000496
   24  H  9  S    0.018160  -0.007046   0.128125   0.267454  -0.001487
   25  H 10  S    0.010114  -0.005945   0.144408   0.247893   0.001598
   26  O 11  S    0.049385  -0.036836   0.815029  -0.372016   0.040772
   27  O 11  X   -0.002501   0.001959  -0.044374   0.033760  -0.002962
   28  O 11  Y    0.007250  -0.005050   0.102295  -0.069235   0.004113
   29  O 11  Z    0.010224  -0.004930   0.059190  -0.015320  -0.006982
   30  H 12  S    0.015997  -0.011841   0.261782  -0.128728   0.014074
   31  H 13  S    0.042539  -0.020205   0.265166  -0.104938  -0.012571

                      6          7          8          9         10
                   -0.8630    -0.6860    -0.6556    -0.6350    -0.6182
                     A          A          A          A          A   
    1  CL 1  S    0.066613   0.029736   0.030020   0.009799   0.060888
    2  CL 1  X   -0.155183  -0.144796  -0.194504  -0.061906  -0.238257
    3  CL 1  Y    0.102723  -0.070656   0.046431   0.149152   0.102485
    4  CL 1  Z    0.035093   0.030756  -0.058051  -0.049875   0.345048
    5  C  2  S   -0.333309   0.004782  -0.049803  -0.045236  -0.000884
    6  C  2  X    0.019925   0.053612  -0.005837   0.010769   0.505809
    7  C  2  Y    0.220522  -0.169298   0.060388   0.261754   0.061686
    8  C  2  Z   -0.141664  -0.171493  -0.353089  -0.161662   0.128772
    9  C  3  S    0.516309  -0.041634   0.072302   0.051255   0.003737
   10  C  3  X   -0.009227   0.117036  -0.095698  -0.089241   0.398860
   11  C  3  Y    0.215042  -0.349168  -0.372926  -0.142202  -0.048714
   12  C  3  Z    0.013472  -0.250886   0.013516   0.279495   0.135503
   13  O  4  S   -0.377687  -0.165531  -0.076912   0.127991  -0.008441
   14  O  4  X   -0.093248  -0.073684  -0.136542   0.088477   0.412441
   15  O  4  Y    0.158260  -0.200447  -0.352333  -0.274168  -0.065827
   16  O  4  Z    0.291508   0.426166   0.069819  -0.224707   0.155579
   17  H  5  S   -0.219302   0.146551   0.040456  -0.134866  -0.090695
   18  H  6  S   -0.185181  -0.059189  -0.202260  -0.095802   0.319151
   19  H  7  S    0.334725  -0.287610  -0.177086   0.012365  -0.025449
   20  O  8  S    0.019965   0.042853  -0.064150   0.003896  -0.034231
   21  O  8  X   -0.000689   0.023411  -0.050102   0.168872  -0.001177
   22  O  8  Y   -0.008701  -0.037285   0.056846   0.076399   0.049715
   23  O  8  Z   -0.011290   0.023605  -0.070941   0.492062   0.039621
   24  H  9  S   -0.020248  -0.013119   0.001741   0.307260   0.053492
   25  H 10  S    0.004954  -0.043070   0.092754  -0.320159   0.002436
   26  O 11  S    0.041204   0.049591   0.028334  -0.087586   0.043738
   27  O 11  X   -0.007648  -0.104625   0.158725  -0.121016   0.063936
   28  O 11  Y    0.002727   0.108864  -0.214532   0.224953  -0.100400
   29  O 11  Z   -0.051236  -0.409169   0.430779  -0.095298   0.091709
   30  H 12  S    0.026186   0.233873  -0.311207   0.181035  -0.105324
   31  H 13  S   -0.067222  -0.308046   0.256615  -0.004781   0.027984

                     11         12         13         14         15
                   -0.6150    -0.5597    -0.5491    -0.5279    -0.5155
                     A          A          A          A          A   
    1  CL 1  S   -0.003794  -0.046036   0.000685  -0.032315  -0.008305
    2  CL 1  X    0.008699   0.448516  -0.150063   0.251731   0.099290
    3  CL 1  Y   -0.175785   0.107339  -0.146722  -0.113675  -0.051647
    4  CL 1  Z    0.030163  -0.035816  -0.236544  -0.238858   0.004788
    5  C  2  S    0.023895  -0.025162   0.002926  -0.022869  -0.017283
    6  C  2  X   -0.033075  -0.198051  -0.153099  -0.306519  -0.064010
    7  C  2  Y   -0.304052   0.311969  -0.180595   0.077060   0.007776
    8  C  2  Z    0.077397   0.297064  -0.262029  -0.001394   0.053646
    9  C  3  S   -0.012174  -0.041206   0.006699  -0.003012   0.013697
   10  C  3  X    0.055507   0.018725   0.136698   0.344206   0.069399
   11  C  3  Y    0.135655  -0.114344   0.128908  -0.055880  -0.007224
   12  C  3  Z   -0.283828  -0.095553   0.197128   0.037131  -0.048224
   13  O  4  S   -0.167615  -0.020713   0.091523  -0.045323  -0.054366
   14  O  4  X   -0.119648  -0.033174   0.409409   0.498365   0.051387
   15  O  4  Y    0.233184  -0.132270   0.073073  -0.004204  -0.036695
   16  O  4  Z    0.211091   0.197068  -0.094032   0.273599   0.102907
   17  H  5  S    0.185575  -0.316884   0.219681  -0.060504  -0.029060
   18  H  6  S    0.032009   0.052322  -0.237630  -0.189015  -0.014527
   19  H  7  S    0.009199  -0.125914   0.134537  -0.064110  -0.011208
   20  O  8  S   -0.027063  -0.078873  -0.122219   0.125302  -0.289587
   21  O  8  X    0.155478  -0.000698  -0.057245   0.072217  -0.261001
   22  O  8  Y    0.118653   0.154273   0.227616  -0.264488   0.633775
   23  O  8  Z    0.499807   0.118991   0.042851  -0.034655  -0.126015
   24  H  9  S    0.316748   0.136625   0.141716  -0.143159   0.248344
   25  H 10  S   -0.282008   0.011755   0.090075  -0.100316   0.313892
   26  O 11  S    0.012233   0.195193   0.170069  -0.095544  -0.183397
   27  O 11  X    0.060028   0.167967   0.142767  -0.077210  -0.141429
   28  O 11  Y   -0.047012  -0.363774  -0.330651   0.210643   0.319522
   29  O 11  Z    0.266753  -0.156995  -0.259323   0.252623   0.103450
   30  H 12  S   -0.145298  -0.194757  -0.129674   0.044774   0.206223
   31  H 13  S    0.148437  -0.182076  -0.212869   0.159691   0.123518

                     16         17         18         19         20
                   -0.4693    -0.4536    -0.4448    -0.4265    -0.4234
                     A          A          A          A          A   
    1  CL 1  S    0.003182   0.000049  -0.000469   0.000321   0.004322
    2  CL 1  X   -0.140584   0.002174   0.386880   0.004609   0.029394
    3  CL 1  Y    0.703856  -0.006013   0.499420  -0.017673  -0.326498
    4  CL 1  Z   -0.455094   0.008361   0.606750   0.024839   0.290300
    5  C  2  S    0.085182  -0.000027   0.002116   0.006105   0.084655
    6  C  2  X    0.070636  -0.000274  -0.132222  -0.000683   0.008090
    7  C  2  Y    0.047132   0.001255  -0.184024   0.016082   0.301398
    8  C  2  Z   -0.059396  -0.001677  -0.208995  -0.018408  -0.238588
    9  C  3  S   -0.105350   0.001171   0.003486   0.001545   0.023088
   10  C  3  X    0.047723  -0.002691   0.007702  -0.001028  -0.016451
   11  C  3  Y   -0.065150  -0.002137   0.024888  -0.017377  -0.272132
   12  C  3  Z   -0.108737   0.000413   0.017186   0.005182   0.072223
   13  O  4  S   -0.022536   0.000058   0.002897   0.000542   0.006538
   14  O  4  X    0.021748  -0.002666   0.094988   0.001600   0.009885
   15  O  4  Y    0.425809   0.000328   0.010602   0.040669   0.641286
   16  O  4  Z    0.038530  -0.001495  -0.011702  -0.007977  -0.122728
   17  H  5  S    0.027843  -0.000683   0.252622  -0.005796  -0.132231
   18  H  6  S    0.062720  -0.001403  -0.247552  -0.009808  -0.108831
   19  H  7  S   -0.191568  -0.001112   0.045817  -0.020721  -0.332191
   20  O  8  S   -0.016202   0.002380   0.002440   0.000203  -0.007274
   21  O  8  X   -0.012261   0.015292  -0.006480   0.886454  -0.062315
   22  O  8  Y    0.053488  -0.003622  -0.013380   0.297183   0.019497
   23  O  8  Z    0.010026  -0.010425  -0.000905  -0.348416   0.041226
   24  H  9  S    0.020424  -0.003881  -0.004324   0.000422   0.012060
   25  H 10  S    0.012164  -0.001143  -0.001199  -0.000268   0.003091
   26  O 11  S   -0.008581   0.000021   0.000555   0.000093   0.002546
   27  O 11  X    0.001128   0.887280  -0.002092  -0.014846  -0.000163
   28  O 11  Y    0.022306   0.448445  -0.002573  -0.006393  -0.017135
   29  O 11  Z    0.020433  -0.105414  -0.001247   0.005244  -0.023333
   30  H 12  S    0.006167  -0.000030  -0.000480  -0.000972  -0.000287
   31  H 13  S    0.010454   0.000186  -0.000577   0.000802  -0.004862

                     21         22         23         24         25
                   -0.0142     0.0285     0.0804     0.1089     0.1177
                     A          A          A          A          A   
    1  CL 1  S    0.039866   0.069982  -0.009068   0.005295  -0.004577
    2  CL 1  X    0.316085   0.494898  -0.045011   0.016880   0.014115
    3  CL 1  Y   -0.043290  -0.100594   0.056468  -0.046075   0.003112
    4  CL 1  Z   -0.175655  -0.228907  -0.013969  -0.023339   0.044642
    5  C  2  S   -0.120298  -0.309925  -0.245114  -0.003357  -0.161886
    6  C  2  X    0.261241   0.504013  -0.138041   0.215166  -0.354438
    7  C  2  Y   -0.047996  -0.162861  -0.344247   0.469419   0.057693
    8  C  2  Z   -0.113293  -0.242383   0.404143   0.104727  -0.476098
    9  C  3  S    0.001109   0.082227   0.540690   0.034451   0.066741
   10  C  3  X    0.665213  -0.376704  -0.020442  -0.068070   0.139460
   11  C  3  Y   -0.008755  -0.074547  -0.118063   0.485702   0.306729
   12  C  3  Z    0.203045  -0.097322   0.243547  -0.037720  -0.077051
   13  O  4  S   -0.009950  -0.015264  -0.037791   0.017399  -0.030163
   14  O  4  X   -0.480175   0.255701   0.041846   0.009490  -0.022284
   15  O  4  Y   -0.001419   0.031318   0.025086  -0.126487  -0.101443
   16  O  4  Z   -0.181039  -0.006540  -0.187818   0.073165  -0.081895
   17  H  5  S    0.055073   0.010893   0.066376   0.483443  -0.025691
   18  H  6  S   -0.115264   0.146389   0.016219  -0.219579   0.634096
   19  H  7  S    0.019254  -0.015915  -0.462369  -0.412604  -0.251654
   20  O  8  S    0.000805  -0.002274  -0.005578  -0.001710  -0.008235
   21  O  8  X    0.001866   0.000821   0.005941  -0.000686   0.007230
   22  O  8  Y    0.003572  -0.008372  -0.016906  -0.004356  -0.022083
   23  O  8  Z    0.006775  -0.005394  -0.000348  -0.006759  -0.001117
   24  H  9  S   -0.004685   0.006714   0.010728   0.007409   0.017407
   25  H 10  S    0.000847   0.001663   0.009497  -0.000505   0.014465
   26  O 11  S   -0.011544   0.000440  -0.022484   0.010919  -0.020464
   27  O 11  X    0.006906  -0.000647   0.011678  -0.006370   0.012051
   28  O 11  Y   -0.022957   0.001304  -0.036203   0.018290  -0.032449
   29  O 11  Z   -0.044487   0.002749  -0.054367   0.023658  -0.036285
   30  H 12  S    0.009434  -0.000040   0.025347  -0.013578   0.029714
   31  H 13  S    0.033251  -0.002351   0.062215  -0.030967   0.051131

                     26         27         28         29         30
                    0.1363     0.1515     0.1916     0.2093     0.2402
                     A          A          A          A          A   
    1  CL 1  S   -0.009222  -0.003026   0.002691  -0.000826   0.000943
    2  CL 1  X   -0.013952  -0.017541   0.014952  -0.003992   0.004341
    3  CL 1  Y   -0.018121  -0.005189  -0.001570   0.001752  -0.002536
    4  CL 1  Z    0.000612   0.002307  -0.002333   0.000356   0.000272
    5  C  2  S   -0.422355   0.007336  -0.032283   0.005875  -0.011172
    6  C  2  X   -0.175324   0.017996  -0.002115  -0.005936   0.005482
    7  C  2  Y    0.276459   0.146976  -0.111760   0.016516  -0.037056
    8  C  2  Z    0.152708   0.063329  -0.039409   0.012320  -0.016377
    9  C  3  S   -0.105477   0.047304  -0.171421   0.051665  -0.124381
   10  C  3  X   -0.011965   0.070653  -0.151319   0.054203  -0.100930
   11  C  3  Y   -0.377188  -0.118154   0.108939  -0.040085   0.058683
   12  C  3  Z    0.142251  -0.326742   0.487353  -0.119080   0.258747
   13  O  4  S    0.033628  -0.121346   0.156189  -0.036405   0.058528
   14  O  4  X   -0.040949   0.109993  -0.150713   0.013286  -0.066088
   15  O  4  Y    0.132390  -0.025737   0.080464   0.001022   0.048720
   16  O  4  Z    0.067099  -0.183765   0.414734  -0.137981   0.304880
   17  H  5  S    0.560782   0.109662  -0.051115   0.001452  -0.014509
   18  H  6  S    0.281536  -0.047680   0.033710  -0.006208   0.008144
   19  H  7  S    0.292444   0.122863  -0.072115   0.020831  -0.021419
   20  O  8  S    0.011190  -0.089213  -0.095533  -0.211822  -0.033208
   21  O  8  X   -0.009661   0.091225   0.100515   0.113750  -0.013043
   22  O  8  Y    0.028939  -0.211571  -0.194619  -0.468452  -0.091749
   23  O  8  Z   -0.001358   0.046645   0.091431  -0.105480  -0.114013
   24  H  9  S   -0.023648   0.152906   0.139576   0.565994   0.174828
   25  H 10  S   -0.021667   0.204133   0.269048   0.354579  -0.039028
   26  O 11  S    0.027230  -0.215446  -0.082228   0.100508  -0.043676
   27  O 11  X   -0.017713   0.160097   0.128870  -0.118289  -0.111127
   28  O 11  Y    0.044335  -0.366575  -0.203432   0.248491   0.099275
   29  O 11  Z    0.038125  -0.206318   0.221089   0.075537  -0.507330
   30  H 12  S   -0.046052   0.432033   0.409477  -0.260192  -0.365337
   31  H 13  S   -0.062968   0.437204  -0.099147  -0.251739   0.573174

                     31
                    0.2559
                     A   
    1  CL 1  S    0.000037
    2  CL 1  X    0.000085
    3  CL 1  Y   -0.000113
    4  CL 1  Z   -0.000025
    5  C  2  S    0.001314
    6  C  2  X    0.001457
    7  C  2  Y    0.003678
    8  C  2  Z   -0.000416
    9  C  3  S    0.007444
   10  C  3  X    0.001447
   11  C  3  Y    0.000373
   12  C  3  Z   -0.017485
   13  O  4  S   -0.002881
   14  O  4  X    0.015051
   15  O  4  Y   -0.013341
   16  O  4  Z   -0.011123
   17  H  5  S    0.003190
   18  H  6  S   -0.000341
   19  H  7  S   -0.000558
   20  O  8  S   -0.034563
   21  O  8  X    0.208146
   22  O  8  Y    0.034093
   23  O  8  Z    0.556388
   24  H  9  S   -0.443955
   25  H 10  S    0.604941
   26  O 11  S    0.014358
   27  O 11  X   -0.083808
   28  O 11  Y    0.145758
   29  O 11  Z   -0.102433
   30  H 12  S   -0.195865
   31  H 13  S    0.058668
 ...... END OF RHF CALCULATION ......
 STEP CPU TIME =     0.01 TOTAL CPU TIME =          0.0 (      0.0 MIN)
 TOTAL WALL CLOCK TIME=          0.0 SECONDS, CPU UTILIZATION IS   100.00%

     ----------------------------------------------------------------
     PROPERTY VALUES FOR THE RHF   SELF-CONSISTENT FIELD WAVEFUNCTION
     ----------------------------------------------------------------

                    -------------
                    MOPAC CHARGES
                    -------------
         ATOM NO.   TYPE          CHARGE        ATOM  ELECTRON DENSITY
           1         CL            -0.0830          7.0830
           2         C             -0.1882          4.1882
           3         C              0.2036          3.7964
           4         O             -0.3096          6.3096
           5         H              0.1425          0.8575
           6         H              0.1361          0.8639
           7         H              0.1094          0.8906
           8         O             -0.4055          6.4055
           9         H              0.1839          0.8161
          10         H              0.2161          0.7839
          11         O             -0.4186          6.4186
          12         H              0.1956          0.8044
          13         H              0.2177          0.7823

          ---------------------
          ELECTROSTATIC MOMENTS
          ---------------------

 POINT   1           X           Y           Z (ANGS)      CHARGE
                 0.000000    0.000000    0.000000       -0.00 (A.U.)
         DX          DY          DZ         /D/  (DEBYE)
    -1.000781    3.558115    2.899871    4.697978
 ...... END OF PROPERTY EVALUATION ......
 STEP CPU TIME =     0.00 TOTAL CPU TIME =          0.0 (      0.0 MIN)
 TOTAL WALL CLOCK TIME=          0.0 SECONDS, CPU UTILIZATION IS   100.00%

          NSERCH=  0     ENERGY=     -62.0598579

                                 -----------------------
                                 GRADIENT (HARTREE/BOHR)
                                 -----------------------
        ATOM     ZNUC       DE/DX         DE/DY         DE/DZ
 --------------------------------------------------------------
    1  CL          17.0    -0.0112105     0.0043687     0.0032880
    2  C            6.0     0.0206996    -0.0174802     0.0081221
    3  C            6.0    -0.0091725    -0.0017033     0.0003458
    4  O            8.0    -0.0005022     0.0048472    -0.0219643
    5  H            1.0     0.0030678     0.0167726     0.0048875
    6  H            1.0    -0.0100892    -0.0006054    -0.0137551
    7  H            1.0     0.0045168    -0.0067327    -0.0038362
    8  O            8.0     0.0092885    -0.0213239     0.0043759
    9  H            1.0    -0.0021344     0.0081059     0.0010672
   10  H            1.0    -0.0101640     0.0201826    -0.0056304
   11  O            8.0     0.0093421    -0.0206601    -0.0077423
   12  H            1.0    -0.0048529     0.0089845    -0.0014976
   13  H            1.0     0.0012110     0.0052441     0.0323393

          MAXIMUM GRADIENT = 0.0323393    RMS GRADIENT = 0.0115076

 NSERCH:   0  E=      -62.0598579386  GRAD. MAX=  0.0323393  R.M.S.=  0.0115076

          FORCE CONSTANT MATRIX NOT UPDATED --- TAKING FIRST STEP
          MIN SEARCH, CORRECT HESSIAN, TRYING PURE NR STEP
               NR STEP HAS LENGTH         =   3.644358
          TRIM/QA LAMBDA FOR NON-TS MODES =  -0.03504874
          TRIM/QA STEP HAS LENGTH         =   0.300000
          RADIUS OF STEP TAKEN=   0.30000  CURRENT TRUST RADIUS=   0.30000

 BEGINNING GEOMETRY SEARCH POINT NSERCH=   1 ...

 COORDINATES OF ALL ATOMS ARE (ANGS)
   ATOM   CHARGE       X              Y              Z
 ------------------------------------------------------------
 CL         17.0   1.2336451065   0.2385176039   0.4182751107
 C           6.0   2.7840954607  -0.0512702944  -0.3546302651
 C           6.0   3.1176575318   1.0443656940  -1.3216650611
 O           8.0   3.4369981224   0.7696757638  -2.4777447230
 H           1.0   2.7577284734  -1.0629936506  -0.8161387289
 H           1.0   3.5621624279  -0.0381966766   0.4481285757
 H           1.0   2.8914804371   2.0809830436  -0.9843227755
 O           8.0   4.5735276646  -1.6586696116  -4.1421525183
 H           1.0   4.6111511646  -0.9809267434  -3.4727934117
 H           1.0   4.1433823751  -1.2763859423  -4.9110415697
 O           8.0   3.2485797175   0.4872165426  -5.2244507615
 H           1.0   2.8250570249   1.2161101034  -5.6743815153
 H           1.0   3.2366344934   0.7169241676  -4.2996723563

          INTERNUCLEAR DISTANCES (ANGS.)
          ------------------------------

                1 CL         2 C          3 C          4 O          5 H     

   1 CL      0.0000000    1.7564897 *  2.6881752 *  3.6774753    2.3538350 *
   2 C       1.7564897 *  0.0000000    1.4989457 *  2.3680898 *  1.1123261 *
   3 C       2.6881752 *  1.4989457 *  0.0000000    1.2304280 *  2.1968316 *
   4 O       3.6774753    2.3680898 *  1.2304280 *  0.0000000    2.5653497 *
   5 H       2.3538350 *  1.1123261 *  2.1968316 *  2.5653497 *  0.0000000  
   6 H       2.3450917 *  1.1180254 *  2.1217199 *  3.0379366    1.8154048 *
   7 H       2.8478725 *  2.2258815 *  1.1133425 *  2.0609283 *  3.1513116  
   8 O       5.9625192    4.4867722    4.1690655    3.1557589    3.8359255  
   9 H       5.2948093    3.7316665    3.3105416    2.3309583 *  3.2403279  
  10 H       6.2580444    4.9101378    4.3956369    3.2567285    4.3282563  
  11 O       5.9968465    4.9214698    3.9445268    2.7676125 *  4.6986489  
  12 H       6.3724990    5.4687918    4.3659193    3.2851579    5.3666908  
  13 H       5.1478022    4.0445360    2.9983163 *  1.8336708 *  3.9411248  

                6 H          7 H          8 O          9 H         10 H     

   1 CL      2.3450917 *  2.8478725 *  5.9625192    5.2948093    6.2580444  
   2 C       1.1180254 *  2.2258815 *  4.4867722    3.7316665    4.9101378  
   3 C       2.1217199 *  1.1133425 *  4.1690655    3.3105416    4.3956369  
   4 O       3.0379366    2.0609283 *  3.1557589    2.3309583 *  3.2567285  
   5 H       1.8154048 *  3.1513116    3.8359255    3.2403279    4.3282563  
   6 H       0.0000000    2.6443627 *  4.9718681    4.1668629    5.5309704  
   7 H       2.6443627 *  0.0000000    5.1755361    4.3040731    5.3158542  
   8 O       4.9718681    5.1755361    0.0000000    0.9533061 *  0.9603937 *
   9 H       4.1668629    4.3040731    0.9533061 *  0.0000000    1.5409937 *
  10 H       5.5309704    5.3158542    0.9603937 *  1.5409937 *  0.0000000  
  11 O       5.7054842    4.5438196    2.7443914 *  2.6608925 *  2.0022964 *
  12 H       6.2929913    4.7695983    3.6971927    3.5866549    2.9211652 *
  13 H       4.8184842    3.6015734    2.7304838 *  2.3357488 *  2.2735983 *

               11 O         12 H         13 H     

   1 CL      5.9968465    6.3724990    5.1478022  
   2 C       4.9214698    5.4687918    4.0445360  
   3 C       3.9445268    4.3659193    2.9983163 *
   4 O       2.7676125 *  3.2851579    1.8336708 *
   5 H       4.6986489    5.3666908    3.9411248  
   6 H       5.7054842    6.2929913    4.8184842  
   7 H       4.5438196    4.7695983    3.6015734  
   8 O       2.7443914 *  3.6971927    2.7304838 *
   9 H       2.6608925 *  3.5866549    2.3357488 *
  10 H       2.0022964 *  2.9211652 *  2.2735983 *
  11 O       0.0000000    0.9555600 *  0.9529551 *
  12 H       0.9555600 *  0.0000000    1.5193446 *
  13 H       0.9529551 *  1.5193446 *  0.0000000  

  * ... LESS THAN  3.000


 MOPAC ONE- AND TWO-ELECTRON INTEGRALS REQUIRE      2933 WORDS.
 ...... END OF ONE- AND TWO-ELECTRON INTEGRALS......
 STEP CPU TIME =     0.00 TOTAL CPU TIME =          0.0 (      0.0 MIN)
 TOTAL WALL CLOCK TIME=          0.0 SECONDS, CPU UTILIZATION IS   100.00%
 ...... END OF ONE-ELECTRON INTEGRALS ......
 STEP CPU TIME =     0.00 TOTAL CPU TIME =          0.0 (      0.0 MIN)
 TOTAL WALL CLOCK TIME=          0.0 SECONDS, CPU UTILIZATION IS   100.00%

          --------------------------
               R-AM1 SCF CALCULATION
          --------------------------
     DENSITY MATRIX CONV=  5.00E-05

 ITER EX DEM     TOTAL ENERGY        E CHANGE  DENSITY CHANGE    DIIS ERROR
   1  0  0      -62.0549245784   -62.0549245784   0.041829938   0.000000000
   2  1  0      -62.0623209180    -0.0073963396   0.016666122   0.000000000
   3  2  0      -62.0635852777    -0.0012643597   0.007195216   0.000000000
   4  3  0      -62.0638535585    -0.0002682808   0.003272361   0.000000000
   5  0  0      -62.0639164151    -0.0000628566   0.004082162   0.000000000
   6  1  0      -62.0639381827    -0.0000217676   0.000199467   0.000000000
   7  2  0      -62.0639382591    -0.0000000765   0.000141165   0.000000000
   8  3  0      -62.0639382894    -0.0000000302   0.000101132   0.000000000
   9  4  0      -62.0639383030    -0.0000000136   0.000072966   0.000000000
  10  5  0      -62.0639383095    -0.0000000065   0.000052887   0.000000000
  11  6  0      -62.0639383127    -0.0000000032   0.000038448   0.000000000
  12  7  0      -62.0639383143    -0.0000000016   0.000028006   0.000000000

          -----------------
          DENSITY CONVERGED
          -----------------
     TIME TO FORM FOCK OPERATORS=       0.0 SECONDS (       0.0 SEC/ITER)
     TIME TO SOLVE SCF EQUATIONS=       0.0 SECONDS (       0.0 SEC/ITER)

 FINAL R-AM1 ENERGY IS      -62.0639383143 AFTER  12 ITERATIONS

 HEAT OF FORMATION IS      -168.75432 KCAL/MOL
 
 ...... END OF RHF CALCULATION ......
 STEP CPU TIME =     0.00 TOTAL CPU TIME =          0.0 (      0.0 MIN)
 TOTAL WALL CLOCK TIME=          0.0 SECONDS, CPU UTILIZATION IS   100.00%

          NSERCH=  1     ENERGY=     -62.0639383

                                 -----------------------
                                 GRADIENT (HARTREE/BOHR)
                                 -----------------------
        ATOM     ZNUC       DE/DX         DE/DY         DE/DZ
 --------------------------------------------------------------
    1  CL          17.0    -0.0051895     0.0004070     0.0037591
    2  C            6.0    -0.0037315    -0.0045527    -0.0130269
    3  C            6.0     0.0238584     0.0052583     0.0052238
    4  O            8.0    -0.0109991    -0.0044767    -0.0127071
    5  H            1.0     0.0014780     0.0010625     0.0037013
    6  H            1.0    -0.0001718     0.0020182    -0.0030523
    7  H            1.0    -0.0072978     0.0000791    -0.0007776
    8  O            8.0    -0.0043329     0.0146938     0.0005351
    9  H            1.0     0.0040868    -0.0093084     0.0018759
   10  H            1.0    -0.0010205    -0.0016389    -0.0020664
   11  O            8.0    -0.0015208     0.0046229     0.0096881
   12  H            1.0     0.0016414    -0.0034764    -0.0004293
   13  H            1.0     0.0031992    -0.0046887     0.0072764

          MAXIMUM GRADIENT = 0.0238584    RMS GRADIENT = 0.0068389

 NSERCH:   1  E=      -62.0639383143  GRAD. MAX=  0.0238584  R.M.S.=  0.0068389

          HESSIAN UPDATED USING THE BFGS FORMULA
             ACTUAL ENERGY CHANGE WAS  -0.0040803758
          PREDICTED ENERGY CHANGE WAS  -0.0080066827 RATIO=  0.510
          MIN SEARCH, CORRECT HESSIAN, TRYING PURE NR STEP
               NR STEP HAS LENGTH         =   3.455693
          TRIM/QA LAMBDA FOR NON-TS MODES =  -0.05200529
          TRIM/QA STEP HAS LENGTH         =   0.300000
          RADIUS OF STEP TAKEN=   0.30000  CURRENT TRUST RADIUS=   0.30000

 BEGINNING GEOMETRY SEARCH POINT NSERCH=   2 ...

 COORDINATES OF ALL ATOMS ARE (ANGS)
   ATOM   CHARGE       X              Y              Z
 ------------------------------------------------------------
 CL         17.0   1.2415591016   0.2183498628   0.4346165069
 C           6.0   2.7808753995  -0.0388145077  -0.3426679744
 C           6.0   3.0192922767   1.0463902650  -1.3409755888
 O           8.0   3.5105353667   0.7706228329  -2.4354746598
 H           1.0   2.7453910720  -1.0677288133  -0.8171607501
 H           1.0   3.5715613279  -0.0345089692   0.4651405747
 H           1.0   2.9252313448   2.0878111388  -0.9626560164
 O           8.0   4.5705658770  -1.6600209569  -4.1328994810
 H           1.0   4.6025785372  -0.9677298001  -3.4833801635
 H           1.0   4.1592108820  -1.3088537208  -4.9152770117
 O           8.0   3.2442773310   0.4953042416  -5.2516478736
 H           1.0   2.8216021430   1.2215689308  -5.6887069175
 H           1.0   3.2294193406   0.7229594961  -4.3415006448

          INTERNUCLEAR DISTANCES (ANGS.)
          ------------------------------

                1 CL         2 C          3 C          4 O          5 H     

   1 CL      0.0000000    1.7435020 *  2.6455082 *  3.7000922    2.3414643 *
   2 C       1.7435020 *  0.0000000    1.4936968 *  2.3595407 *  1.1336080 *
   3 C       2.6455082 *  1.4936968 *  0.0000000    1.2309735 *  2.1952001 *
   4 O       3.7000922    2.3595407 *  1.2309735 *  0.0000000    2.5659155 *
   5 H       2.3414643 *  1.1336080 *  2.1952001 *  2.5659155 *  0.0000000  
   6 H       2.3438813 *  1.1303793 *  2.1760974 *  3.0109019    1.8423890 *
   7 H       2.8778478 *  2.2198560 *  1.1119940 *  2.0607670 *  3.1640076  
   8 O       5.9559017    4.4941247    4.1864007    3.1484830    3.8309524  
   9 H       5.2965965    3.7477405    3.3396665    2.3048935 *  3.2508262  
  10 H       6.2822292    4.9418177    4.4296974    3.3006700    4.3418411  
  11 O       6.0349968    4.9596480    3.9557138    2.8420987 *  4.7282804  
  12 H       6.4029739    5.4927550    4.3557475    3.3558161    5.3831825  
  13 H       5.1978375    4.0953820    3.0252126    1.9272346 *  3.9826900  

                6 H          7 H          8 O          9 H         10 H     

   1 CL      2.3438813 *  2.8778478 *  5.9559017    5.2965965    6.2822292  
   2 C       1.1303793 *  2.2198560 *  4.4941247    3.7477405    4.9418177  
   3 C       2.1760974 *  1.1119940 *  4.1864007    3.3396665    4.4296974  
   4 O       3.0109019    2.0607670 *  3.1484830    2.3048935 *  3.3006700  
   5 H       1.8423890 *  3.1640076    3.8309524    3.2508262    4.3418411  
   6 H       0.0000000    2.6382927 *  4.9781796    4.1862529    5.5604119  
   7 H       2.6382927 *  0.0000000    5.1772401    4.3016130    5.3556746  
   8 O       4.9781796    5.1772401    0.0000000    0.9498248 *  0.9511288 *
   9 H       4.1862529    4.3016130    0.9498248 *  0.0000000    1.5372927 *
  10 H       5.5604119    5.3556746    0.9511288 *  1.5372927 *  0.0000000  
  11 O       5.7506075    4.5862097    2.7669597 *  2.6668749 *  2.0506669 *
  12 H       6.3253466    4.8058997    3.7125424    3.5816717    2.9648659 *
  13 H       4.8779729    3.6567665    2.7424048 *  2.3410184 *  2.3069453 *

               11 O         12 H         13 H     

   1 CL      6.0349968    6.4029739    5.1978375  
   2 C       4.9596480    5.4927550    4.0953820  
   3 C       3.9557138    4.3557475    3.0252126  
   4 O       2.8420987 *  3.3558161    1.9272346 *
   5 H       4.7282804    5.3831825    3.9826900  
   6 H       5.7506075    6.3253466    4.8779729  
   7 H       4.5862097    4.8058997    3.6567665  
   8 O       2.7669597 *  3.7125424    2.7424048 *
   9 H       2.6668749 *  3.5816717    2.3410184 *
  10 H       2.0506669 *  2.9648659 *  2.3069453 *
  11 O       0.0000000    0.9471723 *  0.9383047 *
  12 H       0.9471723 *  0.0000000    1.4932819 *
  13 H       0.9383047 *  1.4932819 *  0.0000000  

  * ... LESS THAN  3.000


 MOPAC ONE- AND TWO-ELECTRON INTEGRALS REQUIRE      2933 WORDS.
 ...... END OF ONE- AND TWO-ELECTRON INTEGRALS......
 STEP CPU TIME =     0.00 TOTAL CPU TIME =          0.0 (      0.0 MIN)
 TOTAL WALL CLOCK TIME=          0.0 SECONDS, CPU UTILIZATION IS   100.00%
 ...... END OF ONE-ELECTRON INTEGRALS ......
 STEP CPU TIME =     0.00 TOTAL CPU TIME =          0.0 (      0.0 MIN)
 TOTAL WALL CLOCK TIME=          0.0 SECONDS, CPU UTILIZATION IS   100.00%

          --------------------------
               R-AM1 SCF CALCULATION
          --------------------------
     DENSITY MATRIX CONV=  5.00E-05

 ITER EX DEM     TOTAL ENERGY        E CHANGE  DENSITY CHANGE    DIIS ERROR
   1  0  0      -62.0344055566   -62.0344055566   0.104817318   0.000000000
   2  1  0      -62.0597633641    -0.0253578075   0.043115621   0.000000000
   3  2  0      -62.0643550531    -0.0045916890   0.018443635   0.000000000
   4  3  0      -62.0653065777    -0.0009515247   0.008120453   0.000000000
   5  0  0      -62.0655113655    -0.0002047878   0.007052592   0.000000000
   6  1  0      -62.0655691854    -0.0000578199   0.000154359   0.000000000
   7  2  0      -62.0655692448    -0.0000000594   0.000109328   0.000000000
   8  3  0      -62.0655692664    -0.0000000216   0.000078037   0.000000000
   9  4  0      -62.0655692754    -0.0000000090   0.000056157   0.000000000
  10  5  0      -62.0655692795    -0.0000000041   0.000040634   0.000000000
  11  6  0      -62.0655692814    -0.0000000020   0.000029507   0.000000000

          -----------------
          DENSITY CONVERGED
          -----------------
     TIME TO FORM FOCK OPERATORS=       0.0 SECONDS (       0.0 SEC/ITER)
     TIME TO SOLVE SCF EQUATIONS=       0.0 SECONDS (       0.0 SEC/ITER)

 FINAL R-AM1 ENERGY IS      -62.0655692814 AFTER  11 ITERATIONS

 HEAT OF FORMATION IS      -169.77779 KCAL/MOL
 
 ...... END OF RHF CALCULATION ......
 STEP CPU TIME =     0.00 TOTAL CPU TIME =          0.0 (      0.0 MIN)
 TOTAL WALL CLOCK TIME=          0.0 SECONDS, CPU UTILIZATION IS   100.00%

          NSERCH=  2     ENERGY=     -62.0655693

                                 -----------------------
                                 GRADIENT (HARTREE/BOHR)
                                 -----------------------
        ATOM     ZNUC       DE/DX         DE/DY         DE/DZ
 --------------------------------------------------------------
    1  CL          17.0     0.0032926     0.0006452    -0.0035883
    2  C            6.0     0.0061449     0.0115636    -0.0063307
    3  C            6.0    -0.0236185     0.0034055    -0.0083302
    4  O            8.0     0.0031782    -0.0047309    -0.0003301
    5  H            1.0    -0.0015807    -0.0089486    -0.0024676
    6  H            1.0     0.0040159    -0.0016863     0.0070729
    7  H            1.0     0.0071375    -0.0003258     0.0041865
    8  O            8.0    -0.0078066     0.0214278    -0.0039854
    9  H            1.0     0.0041439    -0.0121688     0.0005136
   10  H            1.0     0.0031017    -0.0071327     0.0039589
   11  O            8.0    -0.0049198     0.0132966     0.0169582
   12  H            1.0     0.0050864    -0.0090945     0.0052760
   13  H            1.0     0.0018246    -0.0062512    -0.0129338

          MAXIMUM GRADIENT = 0.0236185    RMS GRADIENT = 0.0083906

 NSERCH:   2  E=      -62.0655692814  GRAD. MAX=  0.0236185  R.M.S.=  0.0083906

          HESSIAN UPDATED USING THE BFGS FORMULA
             ACTUAL ENERGY CHANGE WAS  -0.0016309671
          PREDICTED ENERGY CHANGE WAS  -0.0071015949 RATIO=  0.230
          MIN SEARCH, CORRECT HESSIAN, TRYING PURE NR STEP
               NR STEP HAS LENGTH         =   3.153254
          TRIM/QA LAMBDA FOR NON-TS MODES =  -0.02761134
          TRIM/QA STEP HAS LENGTH         =   0.300000
          RADIUS OF STEP TAKEN=   0.30000  CURRENT TRUST RADIUS=   0.30000

 BEGINNING GEOMETRY SEARCH POINT NSERCH=   3 ...

 COORDINATES OF ALL ATOMS ARE (ANGS)
   ATOM   CHARGE       X              Y              Z
 ------------------------------------------------------------
 CL         17.0   1.2325686556   0.2301820247   0.4260317932
 C           6.0   2.7841441558  -0.0484778905  -0.3015734649
 C           6.0   3.0753835578   1.0220732670  -1.3055404055
 O           8.0   3.5264430456   0.7979320822  -2.4229978737
 H           1.0   2.7435741031  -1.0531258023  -0.8250283632
 H           1.0   3.5709139070  -0.0575032518   0.4988542602
 H           1.0   2.8895451847   2.0774458065  -0.9837166802
 O           8.0   4.5754558139  -1.7098420145  -4.1091586273
 H           1.0   4.5746054937  -0.9221936224  -3.5284574304
 H           1.0   4.1771424558  -1.3090745656  -4.8939290722
 O           8.0   3.2491091957   0.4786704896  -5.2965281389
 H           1.0   2.8152779274   1.2366201858  -5.6983777701
 H           1.0   3.2079365039   0.7426432912  -4.3721682270

          INTERNUCLEAR DISTANCES (ANGS.)
          ------------------------------

                1 CL         2 C          3 C          4 O          5 H     

   1 CL      0.0000000    1.7362164 *  2.6497926 *  3.7015091    2.3441775 *
   2 C       1.7362164 *  0.0000000    1.4962786 *  2.4016367 *  1.1335645 *
   3 C       2.6497926 *  1.4962786 *  0.0000000    1.2257264 *  2.1557923 *
   4 O       3.7015091    2.4016367 *  1.2257264 *  0.0000000    2.5676459 *
   5 H       2.3441775 *  1.1335645 *  2.1557923 *  2.5676459 *  0.0000000  
   6 H       2.3571009 *  1.1223959 *  2.1602953 *  3.0448263    1.8515995 *
   7 H       2.8540052 *  2.2351690 *  1.1188912 *  2.0283798 *  3.1379879  
   8 O       5.9587364    4.5240063    4.1921180    3.1988274    3.8174047  
   9 H       5.3042591    3.7923490    3.3119783    2.2977201 *  3.2677742  
  10 H       6.2723049    4.9617818    4.4186713    3.3118556    4.3216410  
  11 O       6.0725509    5.0441699    4.0315568    2.9044824 *  4.7535540  
  12 H       6.4051759    5.5477872    4.4057582    3.3802835    5.3849431  
  13 H       5.2141556    4.1683587    3.0821839    1.9757956 *  4.0028265  

                6 H          7 H          8 O          9 H         10 H     

   1 CL      2.3571009 *  2.8540052 *  5.9587364    5.3042591    6.2723049  
   2 C       1.1223959 *  2.2351690 *  4.5240063    3.7923490    4.9617818  
   3 C       2.1602953 *  1.1188912 *  4.1921180    3.3119783    4.4186713  
   4 O       3.0448263    2.0283798 *  3.1988274    2.2977201 *  3.3118556  
   5 H       1.8515995 *  3.1379879    3.8174047    3.2677742    4.3216410  
   6 H       0.0000000    2.6870592 *  4.9973103    4.2396139    5.5692060  
   7 H       2.6870592 *  0.0000000    5.1917464    4.2793657    5.3306836  
   8 O       4.9973103    5.1917464    0.0000000    0.9785727 *  0.9670226 *
   9 H       4.2396139    4.2793657    0.9785727 *  0.0000000    1.4738272 *
  10 H       5.5692060    5.3306836    0.9670226 *  1.4738272 *  0.0000000  
  11 O       5.8290220    4.6136441    2.8211042 *  2.6163782 *  2.0541091 *
  12 H       6.3758471    4.7896276    3.7822590    3.5304766    2.9970610 *
  13 H       4.9496310    3.6557728    2.8202779 *  2.3132907 *  2.3283343 *

               11 O         12 H         13 H     

   1 CL      6.0725509    6.4051759    5.2141556  
   2 C       5.0441699    5.5477872    4.1683587  
   3 C       4.0315568    4.4057582    3.0821839  
   4 O       2.9044824 *  3.3802835    1.9757956 *
   5 H       4.7535540    5.3849431    4.0028265  
   6 H       5.8290220    6.3758471    4.9496310  
   7 H       4.6136441    4.7896276    3.6557728  
   8 O       2.8211042 *  3.7822590    2.8202779 *
   9 H       2.6163782 *  3.5304766    2.3132907 *
  10 H       2.0541091 *  2.9970610 *  2.3283343 *
  11 O       0.0000000    0.9613430 *  0.9621944 *
  12 H       0.9613430 *  0.0000000    1.4686816 *
  13 H       0.9621944 *  1.4686816 *  0.0000000  

  * ... LESS THAN  3.000


 MOPAC ONE- AND TWO-ELECTRON INTEGRALS REQUIRE      2933 WORDS.
 ...... END OF ONE- AND TWO-ELECTRON INTEGRALS......
 STEP CPU TIME =     0.00 TOTAL CPU TIME =          0.0 (      0.0 MIN)
 TOTAL WALL CLOCK TIME=          0.0 SECONDS, CPU UTILIZATION IS   100.00%
 ...... END OF ONE-ELECTRON INTEGRALS ......
 STEP CPU TIME =     0.00 TOTAL CPU TIME =          0.0 (      0.0 MIN)
 TOTAL WALL CLOCK TIME=          0.0 SECONDS, CPU UTILIZATION IS   100.00%

          --------------------------
               R-AM1 SCF CALCULATION
          --------------------------
     DENSITY MATRIX CONV=  5.00E-05

 ITER EX DEM     TOTAL ENERGY        E CHANGE  DENSITY CHANGE    DIIS ERROR
   1  0  0      -62.0604668166   -62.0604668166   0.035654156   0.000000000
   2  1  0      -62.0664593149    -0.0059924983   0.016764805   0.000000000
   3  2  0      -62.0675801528    -0.0011208379   0.007825885   0.000000000
   4  3  0      -62.0678311211    -0.0002509683   0.003665027   0.000000000
   5  0  0      -62.0678941221    -0.0000630010   0.005424049   0.000000000
   6  1  0      -62.0679205516    -0.0000264295   0.000426959   0.000000000
   7  2  0      -62.0679207565    -0.0000002048   0.000307676   0.000000000
   8  3  0      -62.0679208526    -0.0000000961   0.000222071   0.000000000
   9  4  0      -62.0679209019    -0.0000000494   0.000160668   0.000000000
  10  5  0      -62.0679209279    -0.0000000260   0.000116506   0.000000000
  11  6  0      -62.0679209417    -0.0000000138   0.000084634   0.000000000
  12  7  0      -62.0679209490    -0.0000000073   0.000061564   0.000000000
  13  8  0      -62.0679209529    -0.0000000039   0.000044826   0.000000000
  14  9  0      -62.0679209549    -0.0000000021   0.000032662   0.000000000

          -----------------
          DENSITY CONVERGED
          -----------------
     TIME TO FORM FOCK OPERATORS=       0.0 SECONDS (       0.0 SEC/ITER)
     TIME TO SOLVE SCF EQUATIONS=       0.0 SECONDS (       0.0 SEC/ITER)

 FINAL R-AM1 ENERGY IS      -62.0679209549 AFTER  14 ITERATIONS

 HEAT OF FORMATION IS      -171.25353 KCAL/MOL
 
 ...... END OF RHF CALCULATION ......
 STEP CPU TIME =     0.01 TOTAL CPU TIME =          0.0 (      0.0 MIN)
 TOTAL WALL CLOCK TIME=          0.0 SECONDS, CPU UTILIZATION IS   100.00%

          NSERCH=  3     ENERGY=     -62.0679210

                                 -----------------------
                                 GRADIENT (HARTREE/BOHR)
                                 -----------------------
        ATOM     ZNUC       DE/DX         DE/DY         DE/DZ
 --------------------------------------------------------------
    1  CL          17.0     0.0032104    -0.0001252    -0.0041190
    2  C            6.0    -0.0026574     0.0092198     0.0095744
    3  C            6.0    -0.0002587    -0.0133052    -0.0111196
    4  O            8.0    -0.0054115     0.0068530     0.0057391
    5  H            1.0    -0.0011071    -0.0053443    -0.0065630
    6  H            1.0     0.0031304     0.0000016     0.0022127
    7  H            1.0     0.0019803     0.0027329    -0.0024452
    8  O            8.0     0.0052245    -0.0234367    -0.0043305
    9  H            1.0    -0.0032194     0.0133727     0.0007782
   10  H            1.0    -0.0026688     0.0122714     0.0038239
   11  O            8.0     0.0053506    -0.0110786    -0.0031951
   12  H            1.0    -0.0006982     0.0027338     0.0087101
   13  H            1.0    -0.0028751     0.0061048     0.0009339

          MAXIMUM GRADIENT = 0.0234367    RMS GRADIENT = 0.0071165

 NSERCH:   3  E=      -62.0679209549  GRAD. MAX=  0.0234367  R.M.S.=  0.0071165

          HESSIAN UPDATED USING THE BFGS FORMULA
             ACTUAL ENERGY CHANGE WAS  -0.0023516735
          PREDICTED ENERGY CHANGE WAS  -0.0060096441 RATIO=  0.391
          MIN SEARCH, CORRECT HESSIAN, TRYING PURE NR STEP
               NR STEP HAS LENGTH         =   6.412613
          TRIM/QA LAMBDA FOR NON-TS MODES =  -0.00459303
          TRIM/QA STEP HAS LENGTH         =   0.300000
          RADIUS OF STEP TAKEN=   0.30000  CURRENT TRUST RADIUS=   0.30000

 BEGINNING GEOMETRY SEARCH POINT NSERCH=   4 ...

 COORDINATES OF ALL ATOMS ARE (ANGS)
   ATOM   CHARGE       X              Y              Z
 ------------------------------------------------------------
 CL         17.0   1.2382295906   0.2152111355   0.4761278725
 C           6.0   2.7638367523  -0.0560631720  -0.3177835192
 C           6.0   3.0917443741   1.0424629060  -1.2881304388
 O           8.0   3.5955628323   0.8176379863  -2.3986663695
 H           1.0   2.7430525078  -1.0524964637  -0.8205498581
 H           1.0   3.5589658594  -0.0524032867   0.4718069305
 H           1.0   2.8427808896   2.0821773490  -0.9548698427
 O           8.0   4.5892406909  -1.6810843324  -4.1202189211
 H           1.0   4.5597968405  -0.9258426566  -3.5224615806
 H           1.0   4.1461922426  -1.3493047316  -4.9209025735
 O           8.0   3.2438841986   0.4869935425  -5.2901724260
 H           1.0   2.8424432429   1.2196207612  -5.7684464352
 H           1.0   3.2063699784   0.7384409625  -4.3583228382

          INTERNUCLEAR DISTANCES (ANGS.)
          ------------------------------

                1 CL         2 C          3 C          4 O          5 H     

   1 CL      0.0000000    1.7410808 *  2.6893252 *  3.7662156    2.3564693 *
   2 C       1.7410808 *  0.0000000    1.5019508 *  2.4052433 *  1.1162819 *
   3 C       2.6893252 *  1.5019508 *  0.0000000    1.2400280 *  2.1746430 *
   4 O       3.7662156    2.4052433 *  1.2400280 *  0.0000000    2.5912600 *
   5 H       2.3564693 *  1.1162819 *  2.1746430 *  2.5912600 *  0.0000000  
   6 H       2.3361192 *  1.1205788 *  2.1247135 *  2.9996547 *  1.8264958 *
   7 H       2.8474378 *  2.2325285 *  1.1198444 *  2.0616229 *  3.1391348  
   8 O       5.9959666    4.5201005    4.2048698    3.1929222    3.8329296  
   9 H       5.3219856    3.7751756    3.3198856    2.2874413 *  3.2583628  
  10 H       6.3270763    4.9771564    4.4754269    3.3705354    4.3439370  
  11 O       6.1111975    5.0249386    4.0432701    2.9315202 *  4.7537762  
  12 H       6.5251091    5.5985065    4.4907424    3.4762332    5.4455556  
  13 H       5.2458803    4.1416217    3.0873370    1.9994991 *  3.9922372  

                6 H          7 H          8 O          9 H         10 H     

   1 CL      2.3361192 *  2.8474378 *  5.9959666    5.3219856    6.3270763  
   2 C       1.1205788 *  2.2325285 *  4.5201005    3.7751756    4.9771564  
   3 C       2.1247135 *  1.1198444 *  4.2048698    3.3198856    4.4754269  
   4 O       2.9996547 *  2.0616229 *  3.1929222    2.2874413 *  3.3705354  
   5 H       1.8264958 *  3.1391348    3.8329296    3.2583628    4.3439370  
   6 H       0.0000000    2.6654759 *  4.9800371    4.2093634    5.5774639  
   7 H       2.6654759 *  0.0000000    5.2183997    4.3114795    5.4040139  
   8 O       4.9800371    5.2183997    0.0000000    0.9636238 *  0.9733776 *
   9 H       4.2093634    4.3114795    0.9636238 *  0.0000000    1.5185605 *
  10 H       5.5774639    5.4040139    0.9733776 *  1.5185605 *  0.0000000  
  11 O       5.7957425    4.6368463    2.8070157 *  2.6177345 *  2.0790650 *
  12 H       6.4087606    4.8902478    3.7659056    3.5491921    3.0029103  
  13 H       4.9071287    3.6771343    2.7969854 *  2.3022312 *  2.3576352 *

               11 O         12 H         13 H     

   1 CL      6.1111975    6.5251091    5.2458803  
   2 C       5.0249386    5.5985065    4.1416217  
   3 C       4.0432701    4.4907424    3.0873370  
   4 O       2.9315202 *  3.4762332    1.9994991 *
   5 H       4.7537762    5.4455556    3.9922372  
   6 H       5.7957425    6.4087606    4.9071287  
   7 H       4.6368463    4.8902478    3.6771343  
   8 O       2.8070157 *  3.7659056    2.7969854 *
   9 H       2.6177345 *  3.5491921    2.3022312 *
  10 H       2.0790650 *  3.0029103    2.3576352 *
  11 O       0.0000000    0.9626232 *  0.9659072 *
  12 H       0.9626232 *  0.0000000    1.5337618 *
  13 H       0.9659072 *  1.5337618 *  0.0000000  

  * ... LESS THAN  3.000


 MOPAC ONE- AND TWO-ELECTRON INTEGRALS REQUIRE      2933 WORDS.
 ...... END OF ONE- AND TWO-ELECTRON INTEGRALS......
 STEP CPU TIME =     0.00 TOTAL CPU TIME =          0.0 (      0.0 MIN)
 TOTAL WALL CLOCK TIME=          0.0 SECONDS, CPU UTILIZATION IS   100.00%
 ...... END OF ONE-ELECTRON INTEGRALS ......
 STEP CPU TIME =     0.00 TOTAL CPU TIME =          0.0 (      0.0 MIN)
 TOTAL WALL CLOCK TIME=          0.0 SECONDS, CPU UTILIZATION IS   100.00%

          --------------------------
               R-AM1 SCF CALCULATION
          --------------------------
     DENSITY MATRIX CONV=  5.00E-05

 ITER EX DEM     TOTAL ENERGY        E CHANGE  DENSITY CHANGE    DIIS ERROR
   1  0  0      -62.0636331195   -62.0636331195   0.032291782   0.000000000
   2  1  0      -62.0687481699    -0.0051150504   0.014018836   0.000000000
   3  2  0      -62.0698211330    -0.0010729631   0.006485801   0.000000000
   4  3  0      -62.0700759022    -0.0002547692   0.003507124   0.000000000
   5  0  0      -62.0701411171    -0.0000652149   0.004558620   0.000000000
   6  1  0      -62.0701662248    -0.0000251077   0.000075682   0.000000000
   7  2  0      -62.0701662457    -0.0000000209   0.000047591   0.000000000
   8  3  0      -62.0701662511    -0.0000000054   0.000029350   0.000000000

          -----------------
          DENSITY CONVERGED
          -----------------
     TIME TO FORM FOCK OPERATORS=       0.0 SECONDS (       0.0 SEC/ITER)
     TIME TO SOLVE SCF EQUATIONS=       0.0 SECONDS (       0.0 SEC/ITER)

 FINAL R-AM1 ENERGY IS      -62.0701662511 AFTER   8 ITERATIONS

 HEAT OF FORMATION IS      -172.66252 KCAL/MOL
 
 ...... END OF RHF CALCULATION ......
 STEP CPU TIME =     0.00 TOTAL CPU TIME =          0.1 (      0.0 MIN)
 TOTAL WALL CLOCK TIME=          0.1 SECONDS, CPU UTILIZATION IS   100.00%

          NSERCH=  4     ENERGY=     -62.0701663

                                 -----------------------
                                 GRADIENT (HARTREE/BOHR)
                                 -----------------------
        ATOM     ZNUC       DE/DX         DE/DY         DE/DZ
 --------------------------------------------------------------
    1  CL          17.0     0.0004849    -0.0000750     0.0010008
    2  C            6.0    -0.0073154    -0.0040794     0.0016371
    3  C            6.0     0.0002413    -0.0001023     0.0137533
    4  O            8.0     0.0055380    -0.0029503    -0.0222508
    5  H            1.0     0.0018178     0.0009450     0.0000878
    6  H            1.0     0.0003846     0.0018614    -0.0010907
    7  H            1.0    -0.0020629     0.0043995     0.0013500
    8  O            8.0     0.0045836    -0.0047773     0.0048949
    9  H            1.0     0.0002651     0.0006347     0.0020053
   10  H            1.0    -0.0051282     0.0052429    -0.0063518
   11  O            8.0     0.0003370     0.0002352     0.0000487
   12  H            1.0    -0.0010740     0.0008599    -0.0037463
   13  H            1.0     0.0019281    -0.0021943     0.0086617

          MAXIMUM GRADIENT = 0.0222508    RMS GRADIENT = 0.0053067

 NSERCH:   4  E=      -62.0701662511  GRAD. MAX=  0.0222508  R.M.S.=  0.0053067

          HESSIAN UPDATED USING THE BFGS FORMULA
             ACTUAL ENERGY CHANGE WAS  -0.0022452962
          PREDICTED ENERGY CHANGE WAS  -0.0031308073 RATIO=  0.717
          MIN SEARCH, CORRECT HESSIAN, TRYING PURE NR STEP
               NR STEP HAS LENGTH         =   6.699092
          TRIM/QA LAMBDA FOR NON-TS MODES =  -0.00319210
          TRIM/QA STEP HAS LENGTH         =   0.300000
          RADIUS OF STEP TAKEN=   0.30000  CURRENT TRUST RADIUS=   0.30000

 BEGINNING GEOMETRY SEARCH POINT NSERCH=   5 ...

 COORDINATES OF ALL ATOMS ARE (ANGS)
   ATOM   CHARGE       X              Y              Z
 ------------------------------------------------------------
 CL         17.0   1.2494160350   0.2156145404   0.4836438101
 C           6.0   2.7780969024  -0.0530486016  -0.3120062623
 C           6.0   3.0857978413   1.0485359302  -1.2813351913
 O           8.0   3.5592627855   0.8121831796  -2.3879135090
 H           1.0   2.7239879957  -1.0541918964  -0.8101822651
 H           1.0   3.5646421271  -0.0782158989   0.4879398181
 H           1.0   2.8695621709   2.0807764803  -0.9329487874
 O           8.0   4.5321149247  -1.6759981754  -4.0797260333
 H           1.0   4.5669148775  -0.8908585796  -3.5265893103
 H           1.0   4.2230128104  -1.3495371150  -4.9460559926
 O           8.0   3.1955719196   0.4550711610  -5.3094391290
 H           1.0   2.8777524002   1.2232190596  -5.8035279205
 H           1.0   3.1959672098   0.7517999158  -4.3944492274

          INTERNUCLEAR DISTANCES (ANGS.)
          ------------------------------

                1 CL         2 C          3 C          4 O          5 H     

   1 CL      0.0000000    1.7441629 *  2.6797774 *  3.7332463    2.3368262 *
   2 C       1.7441629 *  0.0000000    1.4992555 *  2.3808060 *  1.1195512 *
   3 C       2.6797774 *  1.4992555 *  0.0000000    1.2265999 *  2.1850299 *
   4 O       3.7332463    2.3808060 *  1.2265999 *  0.0000000    2.5826877 *
   5 H       2.3368262 *  1.1195512 *  2.1850299 *  2.5826877 *  0.0000000  
   6 H       2.3338009 *  1.1221410 *  2.1515566 *  3.0105434    1.8287563 *
   7 H       2.8478829 *  2.2242178 *  1.1106987 *  2.0498630 *  3.1407468  
   8 O       5.9311597    4.4616428    4.1648422    3.1622330    3.7875959  
   9 H       5.3209070    3.7729749    3.3160405    2.2830455 *  3.2866281  
  10 H       6.3854223    5.0242493    4.5248415    3.4143362    4.4090538  
  11 O       6.1159359    5.0405165    4.0730667    2.9656554 *  4.7690228  
  12 H       6.5723112    5.6387588    4.5303448    3.5071112    5.4903320  
  13 H       5.2794269    4.1819538    3.1291642    2.0400528 *  4.0412053  

                6 H          7 H          8 O          9 H         10 H     

   1 CL      2.3338009 *  2.8478829 *  5.9311597    5.3209070    6.3854223  
   2 C       1.1221410 *  2.2242178 *  4.4616428    3.7729749    5.0242493  
   3 C       2.1515566 *  1.1106987 *  4.1648422    3.3160405    4.5248415  
   4 O       3.0105434    2.0498630 *  3.1622330    2.2830455 *  3.4143362  
   5 H       1.8287563 *  3.1407468    3.7875959    3.2866281    4.4090538  
   6 H       0.0000000    2.6764358 *  4.9348235    4.2167977    5.6194324  
   7 H       2.6764358 *  0.0000000    5.1749053    4.2940182    5.4501293  
   8 O       4.9348235    5.1749053    0.0000000    0.9610491 *  0.9760372 *
   9 H       4.2167977    4.2940182    0.9610491 *  0.0000000    1.5308626 *
  10 H       5.6194324    5.4501293    0.9760372 *  1.5308626 *  0.0000000  
  11 O       5.8335419    4.6800500    2.7999996 *  2.6211947 *  2.1081492 *
  12 H       6.4612783    4.9455043    3.7568429    3.5365299    3.0272195  
  13 H       4.9661424    3.7221908    2.7890043 *  2.3088970 *  2.4030626 *

               11 O         12 H         13 H     

   1 CL      6.1159359    6.5723112    5.2794269  
   2 C       5.0405165    5.6387588    4.1819538  
   3 C       4.0730667    4.5303448    3.1291642  
   4 O       2.9656554 *  3.5071112    2.0400528 *
   5 H       4.7690228    5.4903320    4.0412053  
   6 H       5.8335419    6.4612783    4.9661424  
   7 H       4.6800500    4.9455043    3.7221908  
   8 O       2.7999996 *  3.7568429    2.7890043 *
   9 H       2.6211947 *  3.5365299    2.3088970 *
  10 H       2.1081492 *  3.0272195    2.4030626 *
  11 O       0.0000000    0.9670492 *  0.9619016 *
  12 H       0.9670492 *  0.0000000    1.5195392 *
  13 H       0.9619016 *  1.5195392 *  0.0000000  

  * ... LESS THAN  3.000


 MOPAC ONE- AND TWO-ELECTRON INTEGRALS REQUIRE      2933 WORDS.
 ...... END OF ONE- AND TWO-ELECTRON INTEGRALS......
 STEP CPU TIME =     0.00 TOTAL CPU TIME =          0.1 (      0.0 MIN)
 TOTAL WALL CLOCK TIME=          0.1 SECONDS, CPU UTILIZATION IS   100.00%
 ...... END OF ONE-ELECTRON INTEGRALS ......
 STEP CPU TIME =     0.00 TOTAL CPU TIME =          0.1 (      0.0 MIN)
 TOTAL WALL CLOCK TIME=          0.1 SECONDS, CPU UTILIZATION IS   100.00%

          --------------------------
               R-AM1 SCF CALCULATION
          --------------------------
     DENSITY MATRIX CONV=  5.00E-05

 ITER EX DEM     TOTAL ENERGY        E CHANGE  DENSITY CHANGE    DIIS ERROR
   1  0  0      -62.0600427909   -62.0600427909   0.058008877   0.000000000
   2  1  0      -62.0677795775    -0.0077367865   0.032772244   0.000000000
   3  2  0      -62.0700170150    -0.0022374375   0.018426163   0.000000000
   4  3  0      -62.0706963167    -0.0006793017   0.010348759   0.000000000
   5  0  0      -62.0709068233    -0.0002105066   0.013256541   0.000000000
   6  1  0      -62.0710033763    -0.0000965531   0.000096242   0.000000000
   7  2  0      -62.0710033960    -0.0000000196   0.000071134   0.000000000
   8  3  0      -62.0710034036    -0.0000000076   0.000052298   0.000000000
   9  4  0      -62.0710034071    -0.0000000035   0.000038330   0.000000000
  10  5  0      -62.0710034088    -0.0000000017   0.000028041   0.000000000

          -----------------
          DENSITY CONVERGED
          -----------------
     TIME TO FORM FOCK OPERATORS=       0.0 SECONDS (       0.0 SEC/ITER)
     TIME TO SOLVE SCF EQUATIONS=       0.0 SECONDS (       0.0 SEC/ITER)

 FINAL R-AM1 ENERGY IS      -62.0710034088 AFTER  10 ITERATIONS

 HEAT OF FORMATION IS      -173.18786 KCAL/MOL
 
 ...... END OF RHF CALCULATION ......
 STEP CPU TIME =     0.00 TOTAL CPU TIME =          0.1 (      0.0 MIN)
 TOTAL WALL CLOCK TIME=          0.1 SECONDS, CPU UTILIZATION IS   100.00%

          NSERCH=  5     ENERGY=     -62.0710034

                                 -----------------------
                                 GRADIENT (HARTREE/BOHR)
                                 -----------------------
        ATOM     ZNUC       DE/DX         DE/DY         DE/DZ
 --------------------------------------------------------------
    1  CL          17.0     0.0012531    -0.0008831    -0.0003601
    2  C            6.0    -0.0011642     0.0018022    -0.0039619
    3  C            6.0     0.0042279     0.0015891    -0.0089192
    4  O            8.0    -0.0053814    -0.0001790     0.0070473
    5  H            1.0    -0.0005737    -0.0013004     0.0008023
    6  H            1.0     0.0005483     0.0000123     0.0018012
    7  H            1.0     0.0003341    -0.0012083    -0.0002291
    8  O            8.0     0.0023238    -0.0012157     0.0082375
    9  H            1.0     0.0017056    -0.0015750     0.0026828
   10  H            1.0    -0.0036230     0.0032735    -0.0104038
   11  O            8.0     0.0016469    -0.0043528     0.0034316
   12  H            1.0    -0.0021251     0.0044933    -0.0029625
   13  H            1.0     0.0008277    -0.0004559     0.0028339

          MAXIMUM GRADIENT = 0.0104038    RMS GRADIENT = 0.0035965

 NSERCH:   5  E=      -62.0710034088  GRAD. MAX=  0.0104038  R.M.S.=  0.0035965

          HESSIAN UPDATED USING THE BFGS FORMULA
             ACTUAL ENERGY CHANGE WAS  -0.0008371577
          PREDICTED ENERGY CHANGE WAS  -0.0012355240 RATIO=  0.678
          MIN SEARCH, CORRECT HESSIAN, TRYING PURE NR STEP
               NR STEP HAS LENGTH         =   7.901807
          TRIM/QA LAMBDA FOR NON-TS MODES =  -0.00593309
          TRIM/QA STEP HAS LENGTH         =   0.300000
          RADIUS OF STEP TAKEN=   0.30000  CURRENT TRUST RADIUS=   0.30000

 BEGINNING GEOMETRY SEARCH POINT NSERCH=   6 ...

 COORDINATES OF ALL ATOMS ARE (ANGS)
   ATOM   CHARGE       X              Y              Z
 ------------------------------------------------------------
 CL         17.0   1.2439982994   0.2132825383   0.4636840849
 C           6.0   2.7906936172  -0.0517766551  -0.2981572846
 C           6.0   3.0860627180   1.0481959591  -1.2695773138
 O           8.0   3.6161032687   0.8282806468  -2.3567240014
 H           1.0   2.7190912525  -1.0482498856  -0.8176765760
 H           1.0   3.5657083358  -0.1000895482   0.5119203612
 H           1.0   2.8389450581   2.0804426164  -0.9352987488
 O           8.0   4.5712685755  -1.6611675883  -4.0940972030
 H           1.0   4.5575423180  -0.8721821734  -3.5476632131
 H           1.0   4.1579083331  -1.4038863660  -4.9067110264
 O           8.0   3.2464412760   0.4822011757  -5.3340542259
 H           1.0   2.8532353044   1.2065154445  -5.8069142839
 H           1.0   3.1751016432   0.7637838358  -4.4213205691

          INTERNUCLEAR DISTANCES (ANGS.)
          ------------------------------

                1 CL         2 C          3 C          4 O          5 H     

   1 CL      0.0000000    1.7443982 *  2.6635459 *  3.7362824    2.3257791 *
   2 C       1.7443982 *  0.0000000    1.4969434 *  2.3861054 *  1.1260489 *
   3 C       2.6635459 *  1.4969434 *  0.0000000    1.2293062 *  2.1757683 *
   4 O       3.7362824    2.3861054 *  1.2293062 *  0.0000000    2.5874049 *
   5 H       2.3257791 *  1.1260489 *  2.1757683 *  2.5874049 *  0.0000000  
   6 H       2.3432598 *  1.1221443 *  2.1730977 *  3.0155483    1.8394555 *
   7 H       2.8261803 *  2.2259013 *  1.1128084 *  2.0475190 *  3.1331959  
   8 O       5.9462308    4.4910741    4.1862155    3.1824769    3.8132874  
   9 H       5.3149520    3.7886816    3.3230678    2.2795213 *  3.2960172  
  10 H       6.3203837    4.9936204    4.5155622    3.4319901    4.3493534  
  11 O       6.1396958    5.0845940    4.1068289    3.0200855    4.7977125  
  12 H       6.5495465    5.6509835    4.5460643    3.5537082    5.4767193  
  13 H       5.2816174    4.2205905    3.1658022    2.1121556 *  4.0592686  

                6 H          7 H          8 O          9 H         10 H     

   1 CL      2.3432598 *  2.8261803 *  5.9462308    5.3149520    6.3203837  
   2 C       1.1221443 *  2.2259013 *  4.4910741    3.7886816    4.9936204  
   3 C       2.1730977 *  1.1128084 *  4.1862155    3.3230678    4.5155622  
   4 O       3.0155483    2.0475190 *  3.1824769    2.2795213 *  3.4319901  
   5 H       1.8394555 *  3.1331959    3.8132874    3.2960172    4.3493534  
   6 H       0.0000000    2.7161275 *  4.9662374    4.2497153    5.6046546  
   7 H       2.7161275 *  0.0000000    5.1940927    4.3006997    5.4453951  
   8 O       4.9662374    5.1940927    0.0000000    0.9598315 *  0.9473128 *
   9 H       4.2497153    4.3006997    0.9598315 *  0.0000000    1.5130855 *
  10 H       5.6046546    5.4453951    0.9473128 *  1.5130855 *  0.0000000  
  11 O       5.8835714    4.6978164    2.8083252 *  2.5970239 *  2.1379244 *
  12 H       6.4917259    4.9494031    3.7561931    3.5113903    3.0539704  
  13 H       5.0235164    3.7415157    2.8172232 *  2.3131805 *  2.4290548 *

               11 O         12 H         13 H     

   1 CL      6.1396958    6.5495465    5.2816174  
   2 C       5.0845940    5.6509835    4.2205905  
   3 C       4.1068289    4.5460643    3.1658022  
   4 O       3.0200855    3.5537082    2.1121556 *
   5 H       4.7977125    5.4767193    4.0592686  
   6 H       5.8835714    6.4917259    5.0235164  
   7 H       4.6978164    4.9494031    3.7415157  
   8 O       2.8083252 *  3.7561931    2.8172232 *
   9 H       2.5970239 *  3.5113903    2.3131805 *
  10 H       2.1379244 *  3.0539704    2.4290548 *
  11 O       0.0000000    0.9501783 *  0.9578418 *
  12 H       0.9501783 *  0.0000000    1.4897916 *
  13 H       0.9578418 *  1.4897916 *  0.0000000  

  * ... LESS THAN  3.000


 MOPAC ONE- AND TWO-ELECTRON INTEGRALS REQUIRE      2933 WORDS.
 ...... END OF ONE- AND TWO-ELECTRON INTEGRALS......
 STEP CPU TIME =     0.00 TOTAL CPU TIME =          0.1 (      0.0 MIN)
 TOTAL WALL CLOCK TIME=          0.1 SECONDS, CPU UTILIZATION IS   100.00%
 ...... END OF ONE-ELECTRON INTEGRALS ......
 STEP CPU TIME =     0.00 TOTAL CPU TIME =          0.1 (      0.0 MIN)
 TOTAL WALL CLOCK TIME=          0.1 SECONDS, CPU UTILIZATION IS   100.00%

          --------------------------
               R-AM1 SCF CALCULATION
          --------------------------
     DENSITY MATRIX CONV=  1.00E-05

 ITER EX DEM     TOTAL ENERGY        E CHANGE  DENSITY CHANGE    DIIS ERROR
   1  0  0      -62.0588142194   -62.0588142194   0.051812279   0.000000000
   2  1  0      -62.0677842247    -0.0089700053   0.028360682   0.000000000
   3  2  0      -62.0701071530    -0.0023229283   0.015565310   0.000000000
   4  3  0      -62.0707670486    -0.0006598956   0.008566948   0.000000000
   5  0  0      -62.0709630605    -0.0001960118   0.010723870   0.000000000
   6  1  0      -62.0710519994    -0.0000889390   0.000473697   0.000000000
   7  2  0      -62.0710522680    -0.0000002686   0.000345817   0.000000000
   8  3  0      -62.0710524035    -0.0000001356   0.000252350   0.000000000
   9  4  0      -62.0710524748    -0.0000000712   0.000184137   0.000000000
  10  5  0      -62.0710525125    -0.0000000377   0.000134378   0.000000000
  11  6  0      -62.0710525326    -0.0000000201   0.000098079   0.000000000
  12  7  0      -62.0710525432    -0.0000000107   0.000071594   0.000000000
  13  8  0      -62.0710525489    -0.0000000057   0.000052266   0.000000000
  14  9  0      -62.0710525520    -0.0000000030   0.000038159   0.000000000
  15 10  0      -62.0710525536    -0.0000000016   0.000027861   0.000000000
  16 11  0      -62.0710525544    -0.0000000009   0.000020343   0.000000000
  17 12  0      -62.0710525549    -0.0000000005   0.000014854   0.000000000
  18 13  0      -62.0710525551    -0.0000000002   0.000010846   0.000000000

          ----------------
          ENERGY CONVERGED
          ----------------
     TIME TO FORM FOCK OPERATORS=       0.0 SECONDS (       0.0 SEC/ITER)
     TIME TO SOLVE SCF EQUATIONS=       0.0 SECONDS (       0.0 SEC/ITER)

 FINAL R-AM1 ENERGY IS      -62.0710525551 AFTER  18 ITERATIONS

 HEAT OF FORMATION IS      -173.21870 KCAL/MOL
 
 ...... END OF RHF CALCULATION ......
 STEP CPU TIME =     0.01 TOTAL CPU TIME =          0.1 (      0.0 MIN)
 TOTAL WALL CLOCK TIME=          0.1 SECONDS, CPU UTILIZATION IS   100.00%

          NSERCH=  6     ENERGY=     -62.0710526

                                 -----------------------
                                 GRADIENT (HARTREE/BOHR)
                                 -----------------------
        ATOM     ZNUC       DE/DX         DE/DY         DE/DZ
 --------------------------------------------------------------
    1  CL          17.0     0.0019154    -0.0009245    -0.0026077
    2  C            6.0     0.0033867     0.0069167     0.0008966
    3  C            6.0    -0.0044150    -0.0017413    -0.0061401
    4  O            8.0    -0.0011313     0.0004925     0.0045300
    5  H            1.0    -0.0026847    -0.0034054    -0.0018163
    6  H            1.0     0.0011594    -0.0013296     0.0034406
    7  H            1.0     0.0016352     0.0000521     0.0001166
    8  O            8.0    -0.0064611     0.0080230    -0.0118218
    9  H            1.0     0.0015389    -0.0032382     0.0019454
   10  H            1.0     0.0052583    -0.0048717     0.0105330
   11  O            8.0    -0.0024738     0.0053539    -0.0023262
   12  H            1.0     0.0032079    -0.0059344     0.0075604
   13  H            1.0    -0.0009356     0.0006067    -0.0043106

          MAXIMUM GRADIENT = 0.0118218    RMS GRADIENT = 0.0044749

 NSERCH:   6  E=      -62.0710525551  GRAD. MAX=  0.0118218  R.M.S.=  0.0044749

          HESSIAN UPDATED USING THE BFGS FORMULA
             ACTUAL ENERGY CHANGE WAS  -0.0000491463
          PREDICTED ENERGY CHANGE WAS  -0.0011779048 RATIO=  0.042
          MIN SEARCH, CORRECT HESSIAN, TRYING PURE NR STEP
               NR STEP HAS LENGTH         =  11.053118
          TRIM/QA LAMBDA FOR NON-TS MODES =  -0.00877002
          TRIM/QA STEP HAS LENGTH         =   0.150000
          RADIUS OF STEP TAKEN=   0.15000  CURRENT TRUST RADIUS=   0.15000

 BEGINNING GEOMETRY SEARCH POINT NSERCH=   7 ...

 COORDINATES OF ALL ATOMS ARE (ANGS)
   ATOM   CHARGE       X              Y              Z
 ------------------------------------------------------------
 CL         17.0   1.2451648092   0.2153821959   0.4849932074
 C           6.0   2.7782343607  -0.0624224740  -0.2980351298
 C           6.0   3.0880563630   1.0481952191  -1.2571307536
 O           8.0   3.6273383672   0.8417691504  -2.3486205388
 H           1.0   2.7249327169  -1.0512539323  -0.8225645476
 H           1.0   3.5663901799  -0.1042228428   0.4972582401
 H           1.0   2.8319293361   2.0787866946  -0.9210506955
 O           8.0   4.5655304618  -1.6676881076  -4.0755453489
 H           1.0   4.5564455829  -0.8397998250  -3.5690825497
 H           1.0   4.1550621715  -1.4185471119  -4.9070591742
 O           8.0   3.2312617403   0.4700627629  -5.3318403032
 H           1.0   2.8793049830   1.2021424669  -5.8409508613
 H           1.0   3.1724489276   0.7729458037  -4.4229615448

          INTERNUCLEAR DISTANCES (ANGS.)
          ------------------------------

                1 CL         2 C          3 C          4 O          5 H     

   1 CL      0.0000000    1.7437348 *  2.6692364 *  3.7545277    2.3460152 *
   2 C       1.7437348 *  0.0000000    1.4997752 *  2.3965476 *  1.1206069 *
   3 C       2.6692364 *  1.4997752 *  0.0000000    1.2348226 *  2.1744869 *
   4 O       3.7545277    2.3965476 *  1.2348226 *  0.0000000    2.5935920 *
   5 H       2.3460152 *  1.1206069 *  2.1744869 *  2.5935920 *  0.0000000  
   6 H       2.3431571 *  1.1204590 *  2.1528473 *  2.9996069 *  1.8294400 *
   7 H       2.8225976 *  2.2306520 *  1.1138535 *  2.0495960 *  3.1334170  
   8 O       5.9472089    4.4767051    4.1835885    3.1874519    3.7880965  
   9 H       5.3398052    3.8034329    3.3265317    2.2760584 *  3.3079470  
  10 H       6.3412504    4.9977827    4.5326920    3.4544363    4.3431867  
  11 O       6.1518286    5.0821225    4.1180096    3.0322669    4.7858480  
  12 H       6.6076984    5.6862338    4.5911528    3.5896788    5.5032561  
  13 H       5.3021996    4.2270868    3.1788943    2.1247474 *  4.0608908  

                6 H          7 H          8 O          9 H         10 H     

   1 CL      2.3431571 *  2.8225976 *  5.9472089    5.3398052    6.3412504  
   2 C       1.1204590 *  2.2306520 *  4.4767051    3.8034329    4.9977827  
   3 C       2.1528473 *  1.1138535 *  4.1835885    3.3265317    4.5326920  
   4 O       2.9996069 *  2.0495960 *  3.1874519    2.2760584 *  3.4544363  
   5 H       1.8294400 *  3.1334170    3.7880965    3.3079470    4.3431867  
   6 H       0.0000000    2.7049147 *  4.9349000    4.2492835    5.5929089  
   7 H       2.7049147 *  0.0000000    5.1954098    4.3016481    5.4653717  
   8 O       4.9349000    5.1954098    0.0000000    0.9705597 *  0.9601931 *
   9 H       4.2492835    4.3016481    0.9705597 *  0.0000000    1.5120313 *
  10 H       5.5929089    5.4653717    0.9601931 *  1.5120313 *  0.0000000  
  11 O       5.8668991    4.7119554    2.8157643 *  2.5649887 *  2.1449227 *
  12 H       6.5078085    4.9976162    3.7677501    3.4847833    3.0606738  
  13 H       5.0133000    3.7529393    2.8316193 *  2.2903066 *  2.4500042 *

               11 O         12 H         13 H     

   1 CL      6.1518286    6.6076984    5.3021996  
   2 C       5.0821225    5.6862338    4.2270868  
   3 C       4.1180096    4.5911528    3.1788943  
   4 O       3.0322669    3.5896788    2.1247474 *
   5 H       4.7858480    5.5032561    4.0608908  
   6 H       5.8668991    6.5078085    5.0133000  
   7 H       4.7119554    4.9976162    3.7529393  
   8 O       2.8157643 *  3.7677501    2.8316193 *
   9 H       2.5649887 *  3.4847833    2.2903066 *
  10 H       2.1449227 *  3.0606738    2.4500042 *
  11 O       0.0000000    0.9586490 *  0.9598217 *
  12 H       0.9586490 *  0.0000000    1.5102440 *
  13 H       0.9598217 *  1.5102440 *  0.0000000  

  * ... LESS THAN  3.000


 MOPAC ONE- AND TWO-ELECTRON INTEGRALS REQUIRE      2933 WORDS.
 ...... END OF ONE- AND TWO-ELECTRON INTEGRALS......
 STEP CPU TIME =     0.00 TOTAL CPU TIME =          0.1 (      0.0 MIN)
 TOTAL WALL CLOCK TIME=          0.1 SECONDS, CPU UTILIZATION IS   100.00%
 ...... END OF ONE-ELECTRON INTEGRALS ......
 STEP CPU TIME =     0.00 TOTAL CPU TIME =          0.1 (      0.0 MIN)
 TOTAL WALL CLOCK TIME=          0.1 SECONDS, CPU UTILIZATION IS   100.00%

          --------------------------
               R-AM1 SCF CALCULATION
          --------------------------
     DENSITY MATRIX CONV=  1.00E-05

 ITER EX DEM     TOTAL ENERGY        E CHANGE  DENSITY CHANGE    DIIS ERROR
   1  0  0      -62.0698279960   -62.0698279960   0.019431503   0.000000000
   2  1  0      -62.0713751746    -0.0015471786   0.010747954   0.000000000
   3  2  0      -62.0717222524    -0.0003470778   0.005944670   0.000000000
   4  3  0      -62.0718113512    -0.0000890988   0.003295977   0.000000000
   5  0  0      -62.0718361554    -0.0000248042   0.004175728   0.000000000
   6  1  0      -62.0718468272    -0.0000106718   0.000131398   0.000000000
   7  2  0      -62.0718468487    -0.0000000215   0.000094562   0.000000000
   8  3  0      -62.0718468591    -0.0000000104   0.000068600   0.000000000
   9  4  0      -62.0718468644    -0.0000000053   0.000049961   0.000000000
  10  5  0      -62.0718468672    -0.0000000028   0.000036457   0.000000000
  11  6  0      -62.0718468687    -0.0000000015   0.000026631   0.000000000
  12  7  0      -62.0718468695    -0.0000000008   0.000019463   0.000000000
  13  8  0      -62.0718468699    -0.0000000004   0.000014229   0.000000000

          ----------------
          ENERGY CONVERGED
          ----------------
     TIME TO FORM FOCK OPERATORS=       0.0 SECONDS (       0.0 SEC/ITER)
     TIME TO SOLVE SCF EQUATIONS=       0.0 SECONDS (       0.0 SEC/ITER)

 FINAL R-AM1 ENERGY IS      -62.0718468699 AFTER  13 ITERATIONS

 HEAT OF FORMATION IS      -173.71715 KCAL/MOL
 
 ...... END OF RHF CALCULATION ......
 STEP CPU TIME =     0.02 TOTAL CPU TIME =          0.1 (      0.0 MIN)
 TOTAL WALL CLOCK TIME=          0.1 SECONDS, CPU UTILIZATION IS   100.00%

          NSERCH=  7     ENERGY=     -62.0718469

                                 -----------------------
                                 GRADIENT (HARTREE/BOHR)
                                 -----------------------
        ATOM     ZNUC       DE/DX         DE/DY         DE/DZ
 --------------------------------------------------------------
    1  CL          17.0     0.0009624     0.0002699    -0.0011523
    2  C            6.0    -0.0008330     0.0004238     0.0021565
    3  C            6.0    -0.0053126     0.0002125     0.0042146
    4  O            8.0     0.0034976    -0.0007202    -0.0064014
    5  H            1.0     0.0000322    -0.0009560    -0.0007988
    6  H            1.0     0.0006719    -0.0001890     0.0008748
    7  H            1.0     0.0008697     0.0009700    -0.0000867
    8  O            8.0     0.0000281    -0.0065779    -0.0057210
    9  H            1.0     0.0000853     0.0055425     0.0039762
   10  H            1.0     0.0003559     0.0008076     0.0023617
   11  O            8.0    -0.0006347     0.0021662     0.0006993
   12  H            1.0     0.0002156    -0.0010262     0.0012160
   13  H            1.0     0.0000616    -0.0009232    -0.0013391

          MAXIMUM GRADIENT = 0.0065779    RMS GRADIENT = 0.0025411

 NSERCH:   7  E=      -62.0718468699  GRAD. MAX=  0.0065779  R.M.S.=  0.0025411

          HESSIAN UPDATED USING THE BFGS FORMULA
             ACTUAL ENERGY CHANGE WAS  -0.0007943148
          PREDICTED ENERGY CHANGE WAS  -0.0008275482 RATIO=  0.960
          MIN SEARCH, CORRECT HESSIAN, TRYING PURE NR STEP
               NR STEP HAS LENGTH         =   5.320587
          TRIM/QA LAMBDA FOR NON-TS MODES =  -0.00157503
          TRIM/QA STEP HAS LENGTH         =   0.300000
          RADIUS OF STEP TAKEN=   0.30000  CURRENT TRUST RADIUS=   0.30000

 BEGINNING GEOMETRY SEARCH POINT NSERCH=   8 ...

 COORDINATES OF ALL ATOMS ARE (ANGS)
   ATOM   CHARGE       X              Y              Z
 ------------------------------------------------------------
 CL         17.0   1.2664981386   0.2085748536   0.5378114529
 C           6.0   2.7788401685  -0.0696204483  -0.2927698227
 C           6.0   3.0817797410   1.0475381956  -1.2469274635
 O           8.0   3.5756459175   0.8518699104  -2.3516400623
 H           1.0   2.7136055503  -1.0510114080  -0.8219596645
 H           1.0   3.5860699017  -0.1140548047   0.4795992594
 H           1.0   2.8212236571   2.0724228814  -0.8996694172
 O           8.0   4.6080451766  -1.6383325686  -4.0703608574
 H           1.0   4.5168982012  -0.8224576373  -3.5649538487
 H           1.0   4.1170821078  -1.4557335212  -4.8965071951
 O           8.0   3.2204277111   0.4463898164  -5.3453893266
 H           1.0   2.9431687846   1.2024169741  -5.8936266449
 H           1.0   3.1928149438   0.8073477565  -4.4461964094

          INTERNUCLEAR DISTANCES (ANGS.)
          ------------------------------

                1 CL         2 C          3 C          4 O          5 H     

   1 CL      0.0000000    1.7476946 *  2.6803731 *  3.7543205    2.3515218 *
   2 C       1.7476946 *  0.0000000    1.5000775 *  2.3922773 *  1.1168821 *
   3 C       2.6803731 *  1.5000775 *  0.0000000    1.2257976 *  2.1725700 *
   4 O       3.7543205    2.3922773 *  1.2257976 *  0.0000000    2.5892070 *
   5 H       2.3515218 *  1.1168821 *  2.1725700 *  2.5892070 *  0.0000000  
   6 H       2.3426250 *  1.1181003 *  2.1411449 *  2.9914938 *  1.8256882 *
   7 H       2.8208956 *  2.2267629 *  1.1130437 *  2.0413528 *  3.1262537  
   8 O       5.9843342    4.4807413    4.1851122    3.1970233    3.8060423  
   9 H       5.3348675    3.7808462    3.3060090    2.2718844 *  3.2906106  
  10 H       6.3582679    4.9906511    4.5450690    3.4777199    4.3284505  
  11 O       6.2037447    5.0980614    4.1446342    3.0418956    4.7917111  
  12 H       6.7202933    5.7458403    4.6513454    3.6150490    5.5544977  
  13 H       5.3767611    4.2651378    3.2101935    2.1297202 *  4.1010038  

                6 H          7 H          8 O          9 H         10 H     

   1 CL      2.3426250 *  2.8208956 *  5.9843342    5.3348675    6.3582679  
   2 C       1.1181003 *  2.2267629 *  4.4807413    3.7808462    4.9906511  
   3 C       2.1411449 *  1.1130437 *  4.1851122    3.3060090    4.5450690  
   4 O       2.9914938 *  2.0413528 *  3.1970233    2.2718844 *  3.4777199  
   5 H       1.8256882 *  3.1262537    3.8060423    3.2906106    4.3284505  
   6 H       0.0000000    2.6959333 *  4.9061179    4.2103071    5.5663809  
   7 H       2.6959333 *  0.0000000    5.1976650    4.2847855    5.4865152  
   8 O       4.9061179    5.1976650    0.0000000    0.9640518 *  0.9782152 *
   9 H       4.2103071    4.2847855    0.9640518 *  0.0000000    1.5277191 *
  10 H       5.5663809    5.4865152    0.9782152 *  1.5277191 *  0.0000000  
  11 O       5.8632998    4.7505550    2.8102041 *  2.5418025 *  2.1502459 *
  12 H       6.5394517    5.0706400    3.7637706    3.4640234    3.0721464  
  13 H       5.0266386    3.7836951    2.8505230 *  2.2772902 *  2.4856763 *

               11 O         12 H         13 H     

   1 CL      6.2037447    6.7202933    5.3767611  
   2 C       5.0980614    5.7458403    4.2651378  
   3 C       4.1446342    4.6513454    3.2101935  
   4 O       3.0418956    3.6150490    2.1297202 *
   5 H       4.7917111    5.5544977    4.1010038  
   6 H       5.8632998    6.5394517    5.0266386  
   7 H       4.7505550    5.0706400    3.7836951  
   8 O       2.8102041 *  3.7637706    2.8505230 *
   9 H       2.5418025 *  3.4640234    2.2772902 *
  10 H       2.1502459 *  3.0721464    2.4856763 *
  11 O       0.0000000    0.9741734 *  0.9693302 *
  12 H       0.9741734 *  0.0000000    1.5210053 *
  13 H       0.9693302 *  1.5210053 *  0.0000000  

  * ... LESS THAN  3.000


 MOPAC ONE- AND TWO-ELECTRON INTEGRALS REQUIRE      2933 WORDS.
 ...... END OF ONE- AND TWO-ELECTRON INTEGRALS......
 STEP CPU TIME =     0.01 TOTAL CPU TIME =          0.1 (      0.0 MIN)
 TOTAL WALL CLOCK TIME=          0.1 SECONDS, CPU UTILIZATION IS   100.00%
 ...... END OF ONE-ELECTRON INTEGRALS ......
 STEP CPU TIME =     0.00 TOTAL CPU TIME =          0.1 (      0.0 MIN)
 TOTAL WALL CLOCK TIME=          0.1 SECONDS, CPU UTILIZATION IS   100.00%

          --------------------------
               R-AM1 SCF CALCULATION
          --------------------------
     DENSITY MATRIX CONV=  1.00E-05

 ITER EX DEM     TOTAL ENERGY        E CHANGE  DENSITY CHANGE    DIIS ERROR
   1  0  0      -62.0620563603   -62.0620563603   0.040629867   0.000000000
   2  1  0      -62.0691256830    -0.0070693227   0.021430144   0.000000000
   3  2  0      -62.0709277319    -0.0018020489   0.011457385   0.000000000
   4  3  0      -62.0714357067    -0.0005079748   0.006295480   0.000000000
   5  0  0      -62.0715860776    -0.0001503709   0.008160859   0.000000000
   6  1  0      -62.0716529302    -0.0000668527   0.000093482   0.000000000
   7  2  0      -62.0716529504    -0.0000000202   0.000066049   0.000000000
   8  3  0      -62.0716529573    -0.0000000069   0.000047467   0.000000000
   9  4  0      -62.0716529603    -0.0000000030   0.000034371   0.000000000
  10  5  0      -62.0716529618    -0.0000000015   0.000024973   0.000000000
  11  6  0      -62.0716529625    -0.0000000007   0.000018174   0.000000000
  12  7  0      -62.0716529629    -0.0000000004   0.000013236   0.000000000

          ----------------
          ENERGY CONVERGED
          ----------------
     TIME TO FORM FOCK OPERATORS=       0.0 SECONDS (       0.0 SEC/ITER)
     TIME TO SOLVE SCF EQUATIONS=       0.0 SECONDS (       0.0 SEC/ITER)

 FINAL R-AM1 ENERGY IS      -62.0716529629 AFTER  12 ITERATIONS

 HEAT OF FORMATION IS      -173.59547 KCAL/MOL
 
 ...... END OF RHF CALCULATION ......
 STEP CPU TIME =     0.01 TOTAL CPU TIME =          0.1 (      0.0 MIN)
 TOTAL WALL CLOCK TIME=          0.1 SECONDS, CPU UTILIZATION IS   100.00%

          NSERCH=  8     ENERGY=     -62.0716530

                                 -----------------------
                                 GRADIENT (HARTREE/BOHR)
                                 -----------------------
        ATOM     ZNUC       DE/DX         DE/DY         DE/DZ
 --------------------------------------------------------------
    1  CL          17.0    -0.0012946     0.0004470     0.0007955
    2  C            6.0    -0.0009332    -0.0015683    -0.0001475
    3  C            6.0     0.0076160    -0.0027056    -0.0091886
    4  O            8.0    -0.0058502     0.0026209     0.0098995
    5  H            1.0     0.0008452     0.0008499    -0.0000048
    6  H            1.0    -0.0002290     0.0007114    -0.0009454
    7  H            1.0    -0.0002222    -0.0003647    -0.0015175
    8  O            8.0     0.0066265    -0.0033171     0.0084277
    9  H            1.0     0.0005709     0.0010612     0.0029604
   10  H            1.0    -0.0067869     0.0018692    -0.0106856
   11  O            8.0     0.0039438    -0.0118096    -0.0002452
   12  H            1.0    -0.0036967     0.0094400    -0.0051609
   13  H            1.0    -0.0005896     0.0027656     0.0058125

          MAXIMUM GRADIENT = 0.0118096    RMS GRADIENT = 0.0048734

 NSERCH:   8  E=      -62.0716529629  GRAD. MAX=  0.0118096  R.M.S.=  0.0048734

          HESSIAN UPDATED USING THE BFGS FORMULA
             ACTUAL ENERGY CHANGE WAS   0.0001939070
          PREDICTED ENERGY CHANGE WAS  -0.0004304533 RATIO= -0.450
          MIN SEARCH, CORRECT HESSIAN, TRYING PURE NR STEP
               NR STEP HAS LENGTH         =   9.628503
          TRIM/QA LAMBDA FOR NON-TS MODES =  -0.01165842
          TRIM/QA STEP HAS LENGTH         =   0.150000
          RADIUS OF STEP TAKEN=   0.15000  CURRENT TRUST RADIUS=   0.15000

 BEGINNING GEOMETRY SEARCH POINT NSERCH=   9 ...

 COORDINATES OF ALL ATOMS ARE (ANGS)
   ATOM   CHARGE       X              Y              Z
 ------------------------------------------------------------
 CL         17.0   1.2707937547   0.2059509795   0.5472586907
 C           6.0   2.7798060181  -0.0676341554  -0.2927696878
 C           6.0   3.0802567549   1.0528344123  -1.2430128945
 O           8.0   3.5882497790   0.8542707052  -2.3445094599
 H           1.0   2.7103662838  -1.0493798645  -0.8206125555
 H           1.0   3.5887346584  -0.1155022857   0.4784265664
 H           1.0   2.8100153578   2.0744948735  -0.8924514574
 O           8.0   4.5639610537  -1.6530408833  -4.0605497581
 H           1.0   4.5106213991  -0.8277305690  -3.5734423147
 H           1.0   4.1604327617  -1.4393595791  -4.9090023196
 O           8.0   3.2369807729   0.4580417466  -5.3497017075
 H           1.0   2.9286669703   1.1852071935  -5.9007691520
 H           1.0   3.1932144356   0.8071974263  -4.4514539502

          INTERNUCLEAR DISTANCES (ANGS.)
          ------------------------------

                1 CL         2 C          3 C          4 O          5 H     

   1 CL      0.0000000    1.7486036 *  2.6826182 *  3.7620797    2.3493183 *
   2 C       1.7486036 *  0.0000000    1.4995608 *  2.3902146 *  1.1168100 *
   3 C       2.6826182 *  1.4995608 *  0.0000000    1.2291376 *  2.1759012 *
   4 O       3.7620797    2.3902146 *  1.2291376 *  0.0000000    2.5916841 *
   5 H       2.3493183 *  1.1168100 *  2.1759012 *  2.5916841 *  0.0000000  
   6 H       2.3411365 *  1.1186602 *  2.1417083 *  2.9848664 *  1.8251468 *
   7 H       2.8166336 *  2.2246905 *  1.1134244 *  2.0501386 *  3.1262892  
   8 O       5.9609312    4.4601447    4.1787143    3.1911468    3.7811920  
   9 H       5.3427668    3.7863282    3.3186396    2.2781953 *  3.2966830  
  10 H       6.3896670    5.0097270    4.5625968    3.4878012    4.3554228  
  11 O       6.2212204    5.1046944    4.1524973    3.0514862    4.8023214  
  12 H       6.7293796    5.7481674    4.6621020    3.6320175    5.5541899  
  13 H       5.3892789    4.2697648    3.2198123    2.1441744 *  4.1064621  

                6 H          7 H          8 O          9 H         10 H     

   1 CL      2.3411365 *  2.8166336 *  5.9609312    5.3427668    6.3896670  
   2 C       1.1186602 *  2.2246905 *  4.4601447    3.7863282    5.0097270  
   3 C       2.1417083 *  1.1134244 *  4.1787143    3.3186396    4.5625968  
   4 O       2.9848664 *  2.0501386 *  3.1911468    2.2781953 *  3.4878012  
   5 H       1.8251468 *  3.1262892    3.7811920    3.2966830    4.3554228  
   6 H       0.0000000    2.6984807 *  4.8905416    4.2160154    5.5770805  
   7 H       2.6984807 *  0.0000000    5.1968928    4.3014748    5.5048598  
   8 O       4.8905416    5.1968928    0.0000000    0.9598208 *  0.9635178 *
   9 H       4.2160154    4.3014748    0.9598208 *  0.0000000    1.5101135 *
  10 H       5.5770805    5.5048598    0.9635178 *  1.5101135 *  0.0000000  
  11 O       5.8668358    4.7604937    2.8070375 *  2.5358368 *  2.1557160 *
  12 H       6.5438271    5.0880406    3.7571593    3.4599058    3.0641800  
  13 H       5.0310568    3.7972863    2.8433299 *  2.2758416 *  2.4883489 *

               11 O         12 H         13 H     

   1 CL      6.2212204    6.7293796    5.3892789  
   2 C       5.1046944    5.7481674    4.2697648  
   3 C       4.1524973    4.6621020    3.2198123  
   4 O       3.0514862    3.6320175    2.1441744 *
   5 H       4.8023214    5.5541899    4.1064621  
   6 H       5.8668358    6.5438271    5.0310568  
   7 H       4.7604937    5.0880406    3.7972863  
   8 O       2.8070375 *  3.7571593    2.8433299 *
   9 H       2.5358368 *  3.4599058    2.2758416 *
  10 H       2.1557160 *  3.0641800    2.4883489 *
  11 O       0.0000000    0.9630692 *  0.9647146 *
  12 H       0.9630692 *  0.0000000    1.5209837 *
  13 H       0.9647146 *  1.5209837 *  0.0000000  

  * ... LESS THAN  3.000


 MOPAC ONE- AND TWO-ELECTRON INTEGRALS REQUIRE      2933 WORDS.
 ...... END OF ONE- AND TWO-ELECTRON INTEGRALS......
 STEP CPU TIME =     0.00 TOTAL CPU TIME =          0.1 (      0.0 MIN)
 TOTAL WALL CLOCK TIME=          0.1 SECONDS, CPU UTILIZATION IS   100.00%
 ...... END OF ONE-ELECTRON INTEGRALS ......
 STEP CPU TIME =     0.00 TOTAL CPU TIME =          0.1 (      0.0 MIN)
 TOTAL WALL CLOCK TIME=          0.1 SECONDS, CPU UTILIZATION IS   100.00%

          --------------------------
               R-AM1 SCF CALCULATION
          --------------------------
     DENSITY MATRIX CONV=  1.00E-05

 ITER EX DEM     TOTAL ENERGY        E CHANGE  DENSITY CHANGE    DIIS ERROR
   1  0  0      -62.0688902764   -62.0688902764   0.035854794   0.000000000
   2  1  0      -62.0712069692    -0.0023166928   0.020164851   0.000000000
   3  2  0      -62.0718994372    -0.0006924680   0.011315610   0.000000000
   4  3  0      -62.0721131052    -0.0002136681   0.006337640   0.000000000
   5  0  0      -62.0721797186    -0.0000666134   0.008055425   0.000000000
   6  1  0      -62.0722102463    -0.0000305277   0.000079442   0.000000000
   7  2  0      -62.0722102554    -0.0000000092   0.000058513   0.000000000
   8  3  0      -62.0722102597    -0.0000000043   0.000042938   0.000000000
   9  4  0      -62.0722102619    -0.0000000022   0.000031440   0.000000000
  10  5  0      -62.0722102630    -0.0000000011   0.000022991   0.000000000
  11  6  0      -62.0722102636    -0.0000000006   0.000016801   0.000000000
  12  7  0      -62.0722102639    -0.0000000003   0.000012272   0.000000000

          ----------------
          ENERGY CONVERGED
          ----------------
     TIME TO FORM FOCK OPERATORS=       0.0 SECONDS (       0.0 SEC/ITER)
     TIME TO SOLVE SCF EQUATIONS=       0.0 SECONDS (       0.0 SEC/ITER)

 FINAL R-AM1 ENERGY IS      -62.0722102639 AFTER  12 ITERATIONS

 HEAT OF FORMATION IS      -173.94519 KCAL/MOL
 
 ...... END OF RHF CALCULATION ......
 STEP CPU TIME =     0.01 TOTAL CPU TIME =          0.1 (      0.0 MIN)
 TOTAL WALL CLOCK TIME=          0.1 SECONDS, CPU UTILIZATION IS   100.00%

          NSERCH=  9     ENERGY=     -62.0722103

                                 -----------------------
                                 GRADIENT (HARTREE/BOHR)
                                 -----------------------
        ATOM     ZNUC       DE/DX         DE/DY         DE/DZ
 --------------------------------------------------------------
    1  CL          17.0    -0.0013748     0.0002741     0.0009759
    2  C            6.0    -0.0003817    -0.0012019    -0.0014671
    3  C            6.0     0.0045895    -0.0004771    -0.0037126
    4  O            8.0    -0.0026356     0.0001227     0.0037619
    5  H            1.0     0.0006179     0.0006168     0.0004464
    6  H            1.0    -0.0002272     0.0006042    -0.0005844
    7  H            1.0    -0.0006324     0.0000623    -0.0001705
    8  O            8.0     0.0006641     0.0009535     0.0009543
    9  H            1.0     0.0004675    -0.0020511    -0.0001377
   10  H            1.0    -0.0005658     0.0006507    -0.0001871
   11  O            8.0     0.0004145    -0.0009484    -0.0008979
   12  H            1.0    -0.0010375     0.0015784    -0.0018297
   13  H            1.0     0.0001014    -0.0001841     0.0028484

          MAXIMUM GRADIENT = 0.0045895    RMS GRADIENT = 0.0015143

 NSERCH:   9  E=      -62.0722102639  GRAD. MAX=  0.0045895  R.M.S.=  0.0015143

          HESSIAN UPDATED USING THE BFGS FORMULA
             ACTUAL ENERGY CHANGE WAS  -0.0005573010
          PREDICTED ENERGY CHANGE WAS  -0.0006721936 RATIO=  0.829
          MIN SEARCH, CORRECT HESSIAN, TRYING PURE NR STEP
               NR STEP HAS LENGTH         =   5.840043
          TRIM/QA LAMBDA FOR NON-TS MODES =  -0.00533793
          TRIM/QA STEP HAS LENGTH         =   0.212132
          RADIUS OF STEP TAKEN=   0.21213  CURRENT TRUST RADIUS=   0.21213

 BEGINNING GEOMETRY SEARCH POINT NSERCH=  10 ...

 COORDINATES OF ALL ATOMS ARE (ANGS)
   ATOM   CHARGE       X              Y              Z
 ------------------------------------------------------------
 CL         17.0   1.2804182505   0.1964492874   0.5505393447
 C           6.0   2.7870453339  -0.0681282626  -0.2918186938
 C           6.0   3.0617200748   1.0589385945  -1.2388374135
 O           8.0   3.6146997519   0.8731633975  -2.3345400347
 H           1.0   2.6975378906  -1.0480612977  -0.8361064351
 H           1.0   3.5993785419  -0.1394992809   0.4791027688
 H           1.0   2.7909721309   2.0794599416  -0.8867603725
 O           8.0   4.5453630990  -1.6542822819  -4.0409156355
 H           1.0   4.5334424285  -0.7853045132  -3.5974594479
 H           1.0   4.1478259622  -1.4657333072  -4.8913207606
 O           8.0   3.1939865952   0.4321047776  -5.3489511609
 H           1.0   2.9655852127   1.1874456516  -5.9064295943
 H           1.0   3.2041247279   0.8187972932  -4.4690925647

          INTERNUCLEAR DISTANCES (ANGS.)
          ------------------------------

                1 CL         2 C          3 C          4 O          5 H     

   1 CL      0.0000000    1.7462799 *  2.6681067 *  3.7723329    2.3409018 *
   2 C       1.7462799 *  0.0000000    1.4975214 *  2.3966127 *  1.1245130 *
   3 C       2.6681067 *  1.4975214 *  0.0000000    1.2413151 *  2.1758376 *
   4 O       3.7723329    2.3966127 *  1.2413151 *  0.0000000    2.6033812 *
   5 H       2.3409018 *  1.1245130 *  2.1758376 *  2.6033812 *  0.0000000  
   6 H       2.3442571 *  1.1221849 *  2.1625560 *  2.9903689 *  1.8353683 *
   7 H       2.8095075 *  2.2284762 *  1.1129809 *  2.0566343 *  3.1293266  
   8 O       5.9301375    4.4343313    4.1730572    3.1883904    3.7487016  
   9 H       5.3620799    3.8067710    3.3362100    2.2780626 *  3.3263579  
  10 H       6.3717124    4.9960427    4.5710205    3.5059648    4.3269560  
  11 O       6.2065502    5.0980803    4.1597416    3.0754198    4.7752613  
  12 H       6.7464294    5.7560575    4.6703504    3.6439701    5.5477489  
  13 H       5.4115310    4.2907120    3.2422978    2.1743601 *  4.1158692  

                6 H          7 H          8 O          9 H         10 H     

   1 CL      2.3442571 *  2.8095075 *  5.9301375    5.3620799    6.3717124  
   2 C       1.1221849 *  2.2284762 *  4.4343313    3.8067710    4.9960427  
   3 C       2.1625560 *  1.1129809 *  4.1730572    3.3362100    4.5710205  
   4 O       2.9903689 *  2.0566343 *  3.1883904    2.2780626 *  3.5059648  
   5 H       1.8353683 *  3.1293266    3.7487016    3.3263579    4.3269560  
   6 H       0.0000000    2.7281648 *  4.8600433    4.2317726    5.5588794  
   7 H       2.7281648 *  0.0000000    5.1930159    4.3117244    5.5177850  
   8 O       4.8600433    5.1930159    0.0000000    0.9756628 *  0.9574839 *
   9 H       4.2317726    4.3117244    0.9756628 *  0.0000000    1.5118732 *
  10 H       5.5588794    5.5177850    0.9574839 *  1.5118732 *  0.0000000  
  11 O       5.8700329    4.7736094    2.8089476 *  2.5187200 *  2.1727919 *
  12 H       6.5526712    5.1012997    3.7485008    3.4177862    3.0769299  
  13 H       5.0556102    3.8200876    2.8457650 *  2.2583119 *  2.5075743 *

               11 O         12 H         13 H     

   1 CL      6.2065502    6.7464294    5.4115310  
   2 C       5.0980803    5.7560575    4.2907120  
   3 C       4.1597416    4.6703504    3.2422978  
   4 O       3.0754198    3.6439701    2.1743601 *
   5 H       4.7752613    5.5477489    4.1158692  
   6 H       5.8700329    6.5526712    5.0556102  
   7 H       4.7736094    5.1012997    3.8200876  
   8 O       2.8089476 *  3.7485008    2.8457650 *
   9 H       2.5187200 *  3.4177862    2.2583119 *
  10 H       2.1727919 *  3.0769299    2.5075743 *
  11 O       0.0000000    0.9661725 *  0.9611374 *
  12 H       0.9661725 *  0.0000000    1.5029107 *
  13 H       0.9611374 *  1.5029107 *  0.0000000  

  * ... LESS THAN  3.000


 MOPAC ONE- AND TWO-ELECTRON INTEGRALS REQUIRE      2933 WORDS.
 ...... END OF ONE- AND TWO-ELECTRON INTEGRALS......
 STEP CPU TIME =     0.00 TOTAL CPU TIME =          0.1 (      0.0 MIN)
 TOTAL WALL CLOCK TIME=          0.1 SECONDS, CPU UTILIZATION IS   100.00%
 ...... END OF ONE-ELECTRON INTEGRALS ......
 STEP CPU TIME =     0.00 TOTAL CPU TIME =          0.1 (      0.0 MIN)
 TOTAL WALL CLOCK TIME=          0.1 SECONDS, CPU UTILIZATION IS   100.00%

          --------------------------
               R-AM1 SCF CALCULATION
          --------------------------
     DENSITY MATRIX CONV=  1.00E-05

 ITER EX DEM     TOTAL ENERGY        E CHANGE  DENSITY CHANGE    DIIS ERROR
   1  0  0      -62.0655537901   -62.0655537901   0.036431443   0.000000000
   2  1  0      -62.0702009089    -0.0046471187   0.020628316   0.000000000
   3  2  0      -62.0713827745    -0.0011818657   0.011670843   0.000000000
   4  3  0      -62.0717155274    -0.0003327529   0.006600525   0.000000000
   5  0  0      -62.0718136919    -0.0000981645   0.008614201   0.000000000
   6  1  0      -62.0718575489    -0.0000438570   0.000272880   0.000000000
   7  2  0      -62.0718576394    -0.0000000905   0.000201202   0.000000000
   8  3  0      -62.0718576852    -0.0000000458   0.000147787   0.000000000
   9  4  0      -62.0718577094    -0.0000000243   0.000108367   0.000000000
  10  5  0      -62.0718577224    -0.0000000130   0.000079401   0.000000000
  11  6  0      -62.0718577293    -0.0000000069   0.000058159   0.000000000
  12  7  0      -62.0718577330    -0.0000000037   0.000042595   0.000000000
  13  8  0      -62.0718577350    -0.0000000020   0.000031195   0.000000000
  14  9  0      -62.0718577361    -0.0000000011   0.000022846   0.000000000
  15 10  0      -62.0718577367    -0.0000000006   0.000016732   0.000000000
  16 11  0      -62.0718577370    -0.0000000003   0.000012254   0.000000000

          ----------------
          ENERGY CONVERGED
          ----------------
     TIME TO FORM FOCK OPERATORS=       0.0 SECONDS (       0.0 SEC/ITER)
     TIME TO SOLVE SCF EQUATIONS=       0.0 SECONDS (       0.0 SEC/ITER)

 FINAL R-AM1 ENERGY IS      -62.0718577370 AFTER  16 ITERATIONS

 HEAT OF FORMATION IS      -173.72397 KCAL/MOL
 
 ...... END OF RHF CALCULATION ......
 STEP CPU TIME =     0.01 TOTAL CPU TIME =          0.1 (      0.0 MIN)
 TOTAL WALL CLOCK TIME=          0.1 SECONDS, CPU UTILIZATION IS   100.00%

          NSERCH= 10     ENERGY=     -62.0718577

                                 -----------------------
                                 GRADIENT (HARTREE/BOHR)
                                 -----------------------
        ATOM     ZNUC       DE/DX         DE/DY         DE/DZ
 --------------------------------------------------------------
    1  CL          17.0     0.0005068     0.0001080    -0.0013768
    2  C            6.0     0.0019914     0.0036525     0.0018926
    3  C            6.0    -0.0142335     0.0023920     0.0140161
    4  O            8.0     0.0102346    -0.0032767    -0.0163917
    5  H            1.0    -0.0012434    -0.0028762    -0.0016809
    6  H            1.0     0.0012968    -0.0008612     0.0025115
    7  H            1.0     0.0013917     0.0008394     0.0010342
    8  O            8.0    -0.0009678    -0.0104244    -0.0085099
    9  H            1.0     0.0000744     0.0095488     0.0047561
   10  H            1.0     0.0016930     0.0003319     0.0042415
   11  O            8.0     0.0012850    -0.0057086     0.0020118
   12  H            1.0    -0.0014177     0.0048415    -0.0000729
   13  H            1.0    -0.0006112     0.0014330    -0.0024314

          MAXIMUM GRADIENT = 0.0163917    RMS GRADIENT = 0.0056067

 NSERCH:  10  E=      -62.0718577370  GRAD. MAX=  0.0163917  R.M.S.=  0.0056067

          HESSIAN UPDATED USING THE BFGS FORMULA
             ACTUAL ENERGY CHANGE WAS   0.0003525269
          PREDICTED ENERGY CHANGE WAS  -0.0004227344 RATIO= -0.834
          MIN SEARCH, CORRECT HESSIAN, TRYING PURE NR STEP
               NR STEP HAS LENGTH         =   7.771159
          TRIM/QA LAMBDA FOR NON-TS MODES =  -0.01190517
          TRIM/QA STEP HAS LENGTH         =   0.106066
          RADIUS OF STEP TAKEN=   0.10607  CURRENT TRUST RADIUS=   0.10607

 BEGINNING GEOMETRY SEARCH POINT NSERCH=  11 ...

 COORDINATES OF ALL ATOMS ARE (ANGS)
   ATOM   CHARGE       X              Y              Z
 ------------------------------------------------------------
 CL         17.0   1.2811019885   0.1961319542   0.5590092725
 C           6.0   2.7839137866  -0.0707819746  -0.2918231321
 C           6.0   3.0723191835   1.0587586767  -1.2340095251
 O           8.0   3.6020519554   0.8796350511  -2.3326662320
 H           1.0   2.6985437527  -1.0463702791  -0.8353450311
 H           1.0   3.5986376343  -0.1392520506   0.4739477596
 H           1.0   2.7934000589   2.0768897202  -0.8792055902
 O           8.0   4.5384600496  -1.6476015337  -4.0342415079
 H           1.0   4.5170495374  -0.7872148324  -3.5952275552
 H           1.0   4.1559188009  -1.4685975543  -4.9050467314
 O           8.0   3.2258383892   0.4451723478  -5.3527189188
 H           1.0   2.9501341241   1.1678240642  -5.9171198307
 H           1.0   3.2047307388   0.8207564105  -4.4681429776

          INTERNUCLEAR DISTANCES (ANGS.)
          ------------------------------

                1 CL         2 C          3 C          4 O          5 H     

   1 CL      0.0000000    1.7474559 *  2.6772188 *  3.7703809    2.3446059 *
   2 C       1.7474559 *  0.0000000    1.4989179 *  2.3953461 *  1.1200342 *
   3 C       2.6772188 *  1.4989179 *  0.0000000    1.2327809 *  2.1749045 *
   4 O       3.7703809    2.3953461 *  1.2327809 *  0.0000000    2.6014985 *
   5 H       2.3446059 *  1.1200342 *  2.1749045 *  2.6014985 *  0.0000000  
   6 H       2.3432220 *  1.1202090 *  2.1515945 *  2.9858374 *  1.8295573 *
   7 H       2.8094051 *  2.2265673 *  1.1136752 *  2.0493620 *  3.1250079  
   8 O       5.9251740    4.4238544    4.1611601    3.1873411    3.7389450  
   9 H       5.3568658    3.7986203    3.3271932    2.2824702 *  3.3152792  
  10 H       6.3946700    5.0117979    4.5867452    3.5267700    4.3433501  
  11 O       6.2283666    5.1062875    4.1669921    3.0742499    4.7863771  
  12 H       6.7579658    5.7624419    4.6859734    3.6546351    5.5489088  
  13 H       5.4187418    4.2911042    3.2455812    2.1729224 *  4.1157755  

                6 H          7 H          8 O          9 H         10 H     

   1 CL      2.3432220 *  2.8094051 *  5.9251740    5.3568658    6.3946700  
   2 C       1.1202090 *  2.2265673 *  4.4238544    3.7986203    5.0117979  
   3 C       2.1515945 *  1.1136752 *  4.1611601    3.3271932    4.5867452  
   4 O       2.9858374 *  2.0493620 *  3.1873411    2.2824702 *  3.5267700  
   5 H       1.8295573 *  3.1250079    3.7389450    3.3152792    4.3433501  
   6 H       0.0000000    2.7185871 *  4.8458389    4.2215547    5.5687794  
   7 H       2.7185871 *  0.0000000    5.1837555    4.3070683    5.5348292  
   8 O       4.8458389    5.1837555    0.0000000    0.9661558 *  0.9678233 *
   9 H       4.2215547    4.3070683    0.9661558 *  0.0000000    1.5199750 *
  10 H       5.5687794    5.5348292    0.9678233 *  1.5199750 *  0.0000000  
  11 O       5.8677573    4.7814042    2.8001894 *  2.5049512 *  2.1743908 *
  12 H       6.5555129    5.1216741    3.7409399    3.4159310    3.0706559  
  13 H       5.0498554    3.8245961    2.8389955 *  2.2516069 *  2.5172972 *

               11 O         12 H         13 H     

   1 CL      6.2283666    6.7579658    5.4187418  
   2 C       5.1062875    5.7624419    4.2911042  
   3 C       4.1669921    4.6859734    3.2455812  
   4 O       3.0742499    3.6546351    2.1729224 *
   5 H       4.7863771    5.5489088    4.1157755  
   6 H       5.8677573    6.5555129    5.0498554  
   7 H       4.7814042    5.1216741    3.8245961  
   8 O       2.8001894 *  3.7409399    2.8389955 *
   9 H       2.5049512 *  3.4159310    2.2516069 *
  10 H       2.1743908 *  3.0706559    2.5172972 *
  11 O       0.0000000    0.9574898 *  0.9612406 *
  12 H       0.9574898 *  0.0000000    1.5115586 *
  13 H       0.9612406 *  1.5115586 *  0.0000000  

  * ... LESS THAN  3.000


 MOPAC ONE- AND TWO-ELECTRON INTEGRALS REQUIRE      2933 WORDS.
 ...... END OF ONE- AND TWO-ELECTRON INTEGRALS......
 STEP CPU TIME =     0.00 TOTAL CPU TIME =          0.1 (      0.0 MIN)
 TOTAL WALL CLOCK TIME=          0.1 SECONDS, CPU UTILIZATION IS   100.00%
 ...... END OF ONE-ELECTRON INTEGRALS ......
 STEP CPU TIME =     0.00 TOTAL CPU TIME =          0.1 (      0.0 MIN)
 TOTAL WALL CLOCK TIME=          0.1 SECONDS, CPU UTILIZATION IS   100.00%

          --------------------------
               R-AM1 SCF CALCULATION
          --------------------------
     DENSITY MATRIX CONV=  5.00E-05

 ITER EX DEM     TOTAL ENERGY        E CHANGE  DENSITY CHANGE    DIIS ERROR
   1  0  0      -62.0706963926   -62.0706963926   0.022362204   0.000000000
   2  1  0      -62.0719668231    -0.0012704305   0.012648528   0.000000000
   3  2  0      -62.0722908900    -0.0003240669   0.007140813   0.000000000
   4  3  0      -62.0723836325    -0.0000927424   0.004028123   0.000000000
   5  0  0      -62.0724113442    -0.0000277117   0.005216747   0.000000000
   6  1  0      -62.0724237659    -0.0000124217   0.000118220   0.000000000
   7  2  0      -62.0724237826    -0.0000000167   0.000085445   0.000000000
   8  3  0      -62.0724237908    -0.0000000081   0.000062118   0.000000000
   9  4  0      -62.0724237950    -0.0000000043   0.000045276   0.000000000
  10  5  0      -62.0724237973    -0.0000000022   0.000033040   0.000000000

          -----------------
          DENSITY CONVERGED
          -----------------
     TIME TO FORM FOCK OPERATORS=       0.0 SECONDS (       0.0 SEC/ITER)
     TIME TO SOLVE SCF EQUATIONS=       0.0 SECONDS (       0.0 SEC/ITER)

 FINAL R-AM1 ENERGY IS      -62.0724237973 AFTER  10 ITERATIONS

 HEAT OF FORMATION IS      -174.07919 KCAL/MOL
 
 ...... END OF RHF CALCULATION ......
 STEP CPU TIME =     0.00 TOTAL CPU TIME =          0.1 (      0.0 MIN)
 TOTAL WALL CLOCK TIME=          0.1 SECONDS, CPU UTILIZATION IS   100.00%

          NSERCH= 11     ENERGY=     -62.0724238

                                 -----------------------
                                 GRADIENT (HARTREE/BOHR)
                                 -----------------------
        ATOM     ZNUC       DE/DX         DE/DY         DE/DZ
 --------------------------------------------------------------
    1  CL          17.0    -0.0005952     0.0000955    -0.0000704
    2  C            6.0     0.0002889     0.0009298     0.0005518
    3  C            6.0    -0.0016024    -0.0004669     0.0015228
    4  O            8.0     0.0013604    -0.0001746    -0.0023120
    5  H            1.0    -0.0002545    -0.0007564    -0.0004685
    6  H            1.0     0.0005276    -0.0000959     0.0007922
    7  H            1.0     0.0002513     0.0004567    -0.0001071
    8  O            8.0     0.0018567    -0.0038202     0.0017266
    9  H            1.0     0.0006331     0.0026881     0.0027660
   10  H            1.0    -0.0017010     0.0004600    -0.0039781
   11  O            8.0    -0.0012057     0.0032318    -0.0012061
   12  H            1.0     0.0004186    -0.0018237     0.0016297
   13  H            1.0     0.0000220    -0.0007243    -0.0008469

          MAXIMUM GRADIENT = 0.0039781    RMS GRADIENT = 0.0015358

 NSERCH:  11  E=      -62.0724237973  GRAD. MAX=  0.0039781  R.M.S.=  0.0015358

          HESSIAN UPDATED USING THE BFGS FORMULA
             ACTUAL ENERGY CHANGE WAS  -0.0005660603
          PREDICTED ENERGY CHANGE WAS  -0.0006265716 RATIO=  0.903
          MIN SEARCH, CORRECT HESSIAN, TRYING PURE NR STEP
               NR STEP HAS LENGTH         =   7.875056
          TRIM/QA LAMBDA FOR NON-TS MODES =  -0.00572003
          TRIM/QA STEP HAS LENGTH         =   0.212132
          RADIUS OF STEP TAKEN=   0.21213  CURRENT TRUST RADIUS=   0.21213

 BEGINNING GEOMETRY SEARCH POINT NSERCH=  12 ...

 COORDINATES OF ALL ATOMS ARE (ANGS)
   ATOM   CHARGE       X              Y              Z
 ------------------------------------------------------------
 CL         17.0   1.2865948992   0.1902646142   0.5751192057
 C           6.0   2.7814261372  -0.0742227034  -0.2964800677
 C           6.0   3.0817381553   1.0618685844  -1.2312892448
 O           8.0   3.5987225806   0.8828436631  -2.3281385548
 H           1.0   2.7110474525  -1.0447354047  -0.8351943132
 H           1.0   3.6024862625  -0.1284807486   0.4585447627
 H           1.0   2.7720555290   2.0759153261  -0.8758549539
 O           8.0   4.5340982693  -1.6481218048  -4.0433387499
 H           1.0   4.4943868693  -0.8154319383  -3.5888036433
 H           1.0   4.1713901676  -1.4450079428  -4.9037761503
 O           8.0   3.1698264878   0.4131037072  -5.3370910499
 H           1.0   3.0049371045   1.1781365760  -5.9461767072
 H           1.0   3.2133900850   0.8392180717  -4.4601105334

          INTERNUCLEAR DISTANCES (ANGS.)
          ------------------------------

                1 CL         2 C          3 C          4 O          5 H     

   1 CL      0.0000000    1.7504740 *  2.6917177 *  3.7755140    2.3544159 *
   2 C       1.7504740 *  0.0000000    1.5015855 *  2.3898924 *  1.1122325 *
   3 C       2.6917177 *  1.5015855 *  0.0000000    1.2257248 *  2.1753352 *
   4 O       3.7755140    2.3898924 *  1.2257248 *  0.0000000    2.5946889 *
   5 H       2.3544159 *  1.1122325 *  2.1753352 *  2.5946889 *  0.0000000  
   6 H       2.3406283 *  1.1167570 *  2.1315837 *  2.9645228 *  1.8187761 *
   7 H       2.8049239 *  2.2268490 *  1.1182699 *  2.0532720 *  3.1215119  
   8 O       5.9376845    4.4258296    4.1666558    3.1972841    3.7389544  
   9 H       5.3515987    3.7845766    3.3283191    2.2968742 *  3.2886538  
  10 H       6.4042528    5.0038215    4.5780926    3.5186290    4.3412184  
  11 O       6.2089008    5.0789862    4.1576753    3.0754516    4.7542452  
  12 H       6.8158559    5.7911513    4.7169461    3.6783120    5.5811891  
  13 H       5.4302135    4.2844819    3.2391654    2.1669538 *  4.1160231  

                6 H          7 H          8 O          9 H         10 H     

   1 CL      2.3406283 *  2.8049239 *  5.9376845    5.3515987    6.4042528  
   2 C       1.1167570 *  2.2268490 *  4.4258296    3.7845766    5.0038215  
   3 C       2.1315837 *  1.1182699 *  4.1666558    3.3283191    4.5780926  
   4 O       2.9645228 *  2.0532720 *  3.1972841    2.2968742 *  3.5186290  
   5 H       1.8187761 *  3.1215119    3.7389544    3.2886538    4.3412184  
   6 H       0.0000000    2.7073234 *  4.8419175    4.2010020    5.5508000  
   7 H       2.7073234 *  0.0000000    5.1967491    4.3227774    5.5298451  
   8 O       4.8419175    5.1967491    0.0000000    0.9495007 *  0.9555966 *
   9 H       4.2010020    4.3227774    0.9495007 *  0.0000000    1.4932667 *
  10 H       5.5508000    5.5298451    0.9555966 *  1.4932667 *  0.0000000  
  11 O       5.8369429    4.7776345    2.7899253 *  2.5140145 *  2.1548713 *
  12 H       6.5638991    5.1544547    3.7345499    3.4278249    3.0541936  
  13 H       5.0280222    3.8172090    2.8468980 *  2.2667146 *  2.5164045 *

               11 O         12 H         13 H     

   1 CL      6.2089008    6.8158559    5.4302135  
   2 C       5.0789862    5.7911513    4.2844819  
   3 C       4.1576753    4.7169461    3.2391654  
   4 O       3.0754516    3.6783120    2.1669538 *
   5 H       4.7542452    5.5811891    4.1160231  
   6 H       5.8369429    6.5638991    5.0280222  
   7 H       4.7776345    5.1544547    3.8172090  
   8 O       2.7899253 *  3.7345499    2.8468980 *
   9 H       2.5140145 *  3.4278249    2.2667146 *
  10 H       2.1548713 *  3.0541936    2.5164045 *
  11 O       0.0000000    0.9916900 *  0.9759949 *
  12 H       0.9916900 *  0.0000000    1.5384119 *
  13 H       0.9759949 *  1.5384119 *  0.0000000  

  * ... LESS THAN  3.000


 MOPAC ONE- AND TWO-ELECTRON INTEGRALS REQUIRE      2933 WORDS.
 ...... END OF ONE- AND TWO-ELECTRON INTEGRALS......
 STEP CPU TIME =     0.00 TOTAL CPU TIME =          0.1 (      0.0 MIN)
 TOTAL WALL CLOCK TIME=          0.1 SECONDS, CPU UTILIZATION IS   100.00%
 ...... END OF ONE-ELECTRON INTEGRALS ......
 STEP CPU TIME =     0.00 TOTAL CPU TIME =          0.1 (      0.0 MIN)
 TOTAL WALL CLOCK TIME=          0.1 SECONDS, CPU UTILIZATION IS   100.00%

          --------------------------
               R-AM1 SCF CALCULATION
          --------------------------
     DENSITY MATRIX CONV=  1.00E-05

 ITER EX DEM     TOTAL ENERGY        E CHANGE  DENSITY CHANGE    DIIS ERROR
   1  0  0      -62.0651280692   -62.0651280692   0.051266077   0.000000000
   2  1  0      -62.0693784156    -0.0042503464   0.029367769   0.000000000
   3  2  0      -62.0706008518    -0.0012224362   0.016765199   0.000000000
   4  3  0      -62.0709793154    -0.0003784636   0.009566879   0.000000000
   5  0  0      -62.0710991131    -0.0001197977   0.012658409   0.000000000
   6  1  0      -62.0711556995    -0.0000565864   0.000033516   0.000000000
   7  2  0      -62.0711557066    -0.0000000071   0.000021737   0.000000000
   8  3  0      -62.0711557085    -0.0000000019   0.000016160   0.000000000
   9  4  0      -62.0711557092    -0.0000000007   0.000011898   0.000000000
  10  5  0      -62.0711557095    -0.0000000003   0.000008722   0.000000000

          -----------------
          DENSITY CONVERGED
          -----------------
     TIME TO FORM FOCK OPERATORS=       0.0 SECONDS (       0.0 SEC/ITER)
     TIME TO SOLVE SCF EQUATIONS=       0.0 SECONDS (       0.0 SEC/ITER)

 FINAL R-AM1 ENERGY IS      -62.0711557095 AFTER  10 ITERATIONS

 HEAT OF FORMATION IS      -173.28343 KCAL/MOL
 
 ...... END OF RHF CALCULATION ......
 STEP CPU TIME =     0.02 TOTAL CPU TIME =          0.1 (      0.0 MIN)
 TOTAL WALL CLOCK TIME=          0.1 SECONDS, CPU UTILIZATION IS   100.00%

          NSERCH= 12     ENERGY=     -62.0711557

                                 -----------------------
                                 GRADIENT (HARTREE/BOHR)
                                 -----------------------
        ATOM     ZNUC       DE/DX         DE/DY         DE/DZ
 --------------------------------------------------------------
    1  CL          17.0    -0.0026058     0.0004834     0.0023287
    2  C            6.0    -0.0015479    -0.0050084    -0.0025801
    3  C            6.0     0.0125829    -0.0025302    -0.0094927
    4  O            8.0    -0.0065936     0.0006397     0.0095652
    5  H            1.0     0.0016558     0.0028392     0.0018098
    6  H            1.0    -0.0010466     0.0012809    -0.0022433
    7  H            1.0    -0.0025924     0.0023496     0.0005024
    8  O            8.0    -0.0025115     0.0092366    -0.0003754
    9  H            1.0     0.0007775    -0.0098281    -0.0057100
   10  H            1.0     0.0025396     0.0001491     0.0064950
   11  O            8.0     0.0032476    -0.0247691     0.0038995
   12  H            1.0    -0.0044441     0.0196706    -0.0145111
   13  H            1.0     0.0005385     0.0054867     0.0103122

          MAXIMUM GRADIENT = 0.0247691    RMS GRADIENT = 0.0073982

 NSERCH:  12  E=      -62.0711557095  GRAD. MAX=  0.0247691  R.M.S.=  0.0073982

          HESSIAN UPDATED USING THE BFGS FORMULA
             ACTUAL ENERGY CHANGE WAS   0.0012680878
          PREDICTED ENERGY CHANGE WAS  -0.0004066834 RATIO= -3.118
          MIN SEARCH, CORRECT HESSIAN, TRYING PURE NR STEP
               NR STEP HAS LENGTH         =   2.698279
          TRIM/QA LAMBDA FOR NON-TS MODES =  -0.03113865
          TRIM/QA STEP HAS LENGTH         =   0.106066
          RADIUS OF STEP TAKEN=   0.10607  CURRENT TRUST RADIUS=   0.10607

 BEGINNING GEOMETRY SEARCH POINT NSERCH=  13 ...

 COORDINATES OF ALL ATOMS ARE (ANGS)
   ATOM   CHARGE       X              Y              Z
 ------------------------------------------------------------
 CL         17.0   1.2894893486   0.1897708290   0.5725215576
 C           6.0   2.7853975991  -0.0715771257  -0.2920680888
 C           6.0   3.0677004283   1.0619292535  -1.2313504384
 O           8.0   3.5997740588   0.8877873646  -2.3290237552
 H           1.0   2.7048474344  -1.0452619742  -0.8367695207
 H           1.0   3.6065707970  -0.1347554308   0.4653835192
 H           1.0   2.7787638232   2.0770864584  -0.8761548607
 O           8.0   4.5343119419  -1.6490759658  -4.0392833136
 H           1.0   4.4855786059  -0.8009126680  -3.5908147407
 H           1.0   4.1701852712  -1.4582601331  -4.9100558306
 O           8.0   3.2010692113   0.4312841859  -5.3447938661
 H           1.0   2.9880076980   1.1670073753  -5.9315162670
 H           1.0   3.2104037824   0.8303278307  -4.4686643951

          INTERNUCLEAR DISTANCES (ANGS.)
          ------------------------------

                1 CL         2 C          3 C          4 O          5 H     

   1 CL      0.0000000    1.7474437 *  2.6789269 *  3.7740704    2.3483283 *
   2 C       1.7474437 *  0.0000000    1.4989273 *  2.3943220 *  1.1185929 *
   3 C       2.6789269 *  1.4989273 *  0.0000000    1.2321990 *  2.1743071 *
   4 O       3.7740704    2.3943220 *  1.2321990 *  0.0000000    2.6008453 *
   5 H       2.3483283 *  1.1185929 *  2.1743071 *  2.6008453 *  0.0000000  
   6 H       2.3421491 *  1.1189503 *  2.1450738 *  2.9756263 *  1.8269455 *
   7 H       2.8068776 *  2.2266469 *  1.1136393 *  2.0492238 *  3.1234716  
   8 O       5.9311867    4.4259266    4.1695306    3.1990662    3.7373288  
   9 H       5.3413303    3.7820993    3.3237976    2.2865857 *  3.2886890  
  10 H       6.4088275    5.0166062    4.5934411    3.5342657    4.3484990  
  11 O       6.2231092    5.0946727    4.1636423    3.0760738    4.7695606  
  12 H       6.7928244    5.7774145    4.7020156    3.6647202    5.5615429  
  13 H       5.4326588    4.2939515    3.2487236    2.1755397 *  4.1187480  

                6 H          7 H          8 O          9 H         10 H     

   1 CL      2.3421491 *  2.8068776 *  5.9311867    5.3413303    6.4088275  
   2 C       1.1189503 *  2.2266469 *  4.4259266    3.7820993    5.0166062  
   3 C       2.1450738 *  1.1136393 *  4.1695306    3.3237976    4.5934411  
   4 O       2.9756263 *  2.0492238 *  3.1990662    2.2865857 *  3.5342657  
   5 H       1.8269455 *  3.1234716    3.7373288    3.2886890    4.3484990  
   6 H       0.0000000    2.7161064 *  4.8420960    4.2034705    5.5645911  
   7 H       2.7161064 *  0.0000000    5.1934206    4.3087671    5.5413975  
   8 O       4.8420960    5.1934206    0.0000000    0.9606664 *  0.9629349 *
   9 H       4.2034705    4.3087671    0.9606664 *  0.0000000    1.5073074 *
  10 H       5.5645911    5.5413975    0.9629349 *  1.5073074 *  0.0000000  
  11 O       5.8517513    4.7807679    2.7946006 *  2.4989430 *  2.1676164 *
  12 H       6.5572505    5.1408857    3.7285289    3.4050421    3.0549885  
  13 H       5.0431303    3.8271197    2.8433333 *  2.2489189 *  2.5206431 *

               11 O         12 H         13 H     

   1 CL      6.2231092    6.7928244    5.4326588  
   2 C       5.0946727    5.7774145    4.2939515  
   3 C       4.1636423    4.7020156    3.2487236  
   4 O       3.0760738    3.6647202    2.1755397 *
   5 H       4.7695606    5.5615429    4.1187480  
   6 H       5.8517513    6.5572505    5.0431303  
   7 H       4.7807679    5.1408857    3.8271197  
   8 O       2.7946006 *  3.7285289    2.8433333 *
   9 H       2.4989430 *  3.4050421    2.2489189 *
  10 H       2.1676164 *  3.0549885    2.5206431 *
  11 O       0.0000000    0.9648456 *  0.9627699 *
  12 H       0.9648456 *  0.0000000    1.5174810 *
  13 H       0.9627699 *  1.5174810 *  0.0000000  

  * ... LESS THAN  3.000


 MOPAC ONE- AND TWO-ELECTRON INTEGRALS REQUIRE      2933 WORDS.
 ...... END OF ONE- AND TWO-ELECTRON INTEGRALS......
 STEP CPU TIME =     0.01 TOTAL CPU TIME =          0.2 (      0.0 MIN)
 TOTAL WALL CLOCK TIME=          0.1 SECONDS, CPU UTILIZATION IS   100.00%
 ...... END OF ONE-ELECTRON INTEGRALS ......
 STEP CPU TIME =     0.00 TOTAL CPU TIME =          0.2 (      0.0 MIN)
 TOTAL WALL CLOCK TIME=          0.1 SECONDS, CPU UTILIZATION IS   100.00%

          --------------------------
               R-AM1 SCF CALCULATION
          --------------------------
     DENSITY MATRIX CONV=  5.00E-05

 ITER EX DEM     TOTAL ENERGY        E CHANGE  DENSITY CHANGE    DIIS ERROR
   1  0  0      -62.0708933755   -62.0708933755   0.023274075   0.000000000
   2  1  0      -62.0720973714    -0.0012039958   0.013274681   0.000000000
   3  2  0      -62.0723980082    -0.0003006368   0.007522614   0.000000000
   4  3  0      -62.0724856373    -0.0000876291   0.004253924   0.000000000
   5  0  0      -62.0725123531    -0.0000267158   0.005514433   0.000000000
   6  1  0      -62.0725245135    -0.0000121603   0.000052245   0.000000000
   7  2  0      -62.0725245192    -0.0000000057   0.000038283   0.000000000
   8  3  0      -62.0725245213    -0.0000000021   0.000028039   0.000000000

          -----------------
          DENSITY CONVERGED
          -----------------
     TIME TO FORM FOCK OPERATORS=       0.0 SECONDS (       0.0 SEC/ITER)
     TIME TO SOLVE SCF EQUATIONS=       0.0 SECONDS (       0.0 SEC/ITER)

 FINAL R-AM1 ENERGY IS      -62.0725245213 AFTER   8 ITERATIONS

 HEAT OF FORMATION IS      -174.14240 KCAL/MOL
 
 ...... END OF RHF CALCULATION ......
 STEP CPU TIME =     0.01 TOTAL CPU TIME =          0.2 (      0.0 MIN)
 TOTAL WALL CLOCK TIME=          0.2 SECONDS, CPU UTILIZATION IS   100.00%

          NSERCH= 13     ENERGY=     -62.0725245

                                 -----------------------
                                 GRADIENT (HARTREE/BOHR)
                                 -----------------------
        ATOM     ZNUC       DE/DX         DE/DY         DE/DZ
 --------------------------------------------------------------
    1  CL          17.0    -0.0007576     0.0003269     0.0002928
    2  C            6.0     0.0000218    -0.0002629     0.0002681
    3  C            6.0    -0.0002399    -0.0006158     0.0010509
    4  O            8.0     0.0005839    -0.0000705    -0.0010986
    5  H            1.0     0.0003081    -0.0000732    -0.0001423
    6  H            1.0    -0.0000488     0.0003317    -0.0001899
    7  H            1.0     0.0000840     0.0003948    -0.0001816
    8  O            8.0     0.0004101    -0.0001992     0.0006314
    9  H            1.0     0.0003592    -0.0012634    -0.0005265
   10  H            1.0     0.0000066     0.0008723     0.0003476
   11  O            8.0     0.0003515    -0.0021447     0.0012285
   12  H            1.0    -0.0011557     0.0028998    -0.0021802
   13  H            1.0     0.0000769    -0.0001956     0.0005000

          MAXIMUM GRADIENT = 0.0028998    RMS GRADIENT = 0.0008621

 NSERCH:  13  E=      -62.0725245213  GRAD. MAX=  0.0028998  R.M.S.=  0.0008621

          HESSIAN UPDATED USING THE BFGS FORMULA
             ACTUAL ENERGY CHANGE WAS  -0.0013688118
          PREDICTED ENERGY CHANGE WAS  -0.0014590072 RATIO=  0.938
          MIN SEARCH, CORRECT HESSIAN, TRYING PURE NR STEP
               NR STEP HAS LENGTH         =   3.817259
          TRIM/QA LAMBDA FOR NON-TS MODES =  -0.00291457
          TRIM/QA STEP HAS LENGTH         =   0.212132
          RADIUS OF STEP TAKEN=   0.21213  CURRENT TRUST RADIUS=   0.21213

 BEGINNING GEOMETRY SEARCH POINT NSERCH=  14 ...

 COORDINATES OF ALL ATOMS ARE (ANGS)
   ATOM   CHARGE       X              Y              Z
 ------------------------------------------------------------
 CL         17.0   1.3063063378   0.1755465850   0.5976902474
 C           6.0   2.7882751935  -0.0764132455  -0.2981445712
 C           6.0   3.0597812437   1.0739468313  -1.2224912561
 O           8.0   3.5849573420   0.9085799200  -2.3228999207
 H           1.0   2.6965304526  -1.0437034728  -0.8504129717
 H           1.0   3.6189638848  -0.1549167322   0.4489810378
 H           1.0   2.7651329853   2.0798847133  -0.8496974671
 O           8.0   4.5166746233  -1.6439661559  -4.0191242613
 H           1.0   4.4661982639  -0.7761922038  -3.5996599519
 H           1.0   4.1623225820  -1.4816862481  -4.9011051142
 O           8.0   3.2331735330   0.4290702931  -5.3501231393
 H           1.0   2.9862231071   1.1269140913  -5.9603466222
 H           1.0   3.2375604509   0.8682856243  -4.4852560095

          INTERNUCLEAR DISTANCES (ANGS.)
          ------------------------------

                1 CL         2 C          3 C          4 O          5 H     

   1 CL      0.0000000    1.7499244 *  2.6823232 *  3.7761667    2.3486798 *
   2 C       1.7499244 *  0.0000000    1.5004868 *  2.3884196 *  1.1176170 *
   3 C       2.6823232 *  1.5004868 *  0.0000000    1.2304696 *  2.1805587 *
   4 O       3.7761667    2.3884196 *  1.2304696 *  0.0000000    2.6017169 *
   5 H       2.3486798 *  1.1176170 *  2.1805587 *  2.6017169 *  0.0000000  
   6 H       2.3408770 *  1.1200014 *  2.1486299 *  2.9690917 *  1.8246233 *
   7 H       2.8017156 *  2.2258408 *  1.1125214 *  2.0528985 *  3.1243415  
   8 O       5.9103356    4.3920697    4.1630212    3.2032430    3.7032380  
   9 H       5.3393326    3.7689681    3.3244480    2.2902312 *  3.2804947  
  10 H       6.4140471    5.0050019    4.6129229    3.5628451    4.3299518  
  11 O       6.2572818    5.0966593    4.1813007    3.0850870    4.7649176  
  12 H       6.8363051    5.7920387    4.7387224    3.6928540    5.5593996  
  13 H       5.4814207    4.3158099    3.2740702    2.1904548 *  4.1425233  

                6 H          7 H          8 O          9 H         10 H     

   1 CL      2.3408770 *  2.8017156 *  5.9103356    5.3393326    6.4140471  
   2 C       1.1200014 *  2.2258408 *  4.3920697    3.7689681    5.0050019  
   3 C       2.1486299 *  1.1125214 *  4.1630212    3.3244480    4.6129229  
   4 O       2.9690917 *  2.0528985 *  3.2032430    2.2902312 *  3.5628451  
   5 H       1.8246233 *  3.1243415    3.7032380    3.2804947    4.3299518  
   6 H       0.0000000    2.7221188 *  4.7944883    4.1827363    5.5388607  
   7 H       2.7221188 *  0.0000000    5.1942497    4.3142893    5.5723272  
   8 O       4.7944883    5.1942497    0.0000000    0.9651579 *  0.9642564 *
   9 H       4.1827363    4.3142893    0.9651579 *  0.0000000    1.5112319 *
  10 H       5.5388607    5.5723272    0.9642564 *  1.5112319 *  0.0000000  
  11 O       5.8411886    4.8164387    2.7778433 *  2.4570570 *  2.1716182 *
  12 H       6.5668053    5.2034382    3.7132740    3.3741638    3.0512290  
  13 H       5.0536231    3.8611457    2.8574151 *  2.2356517 *  2.5593912 *

               11 O         12 H         13 H     

   1 CL      6.2572818    6.8363051    5.4814207  
   2 C       5.0966593    5.7920387    4.3158099  
   3 C       4.1813007    4.7387224    3.2740702  
   4 O       3.0850870    3.6928540    2.1904548 *
   5 H       4.7649176    5.5593996    4.1425233  
   6 H       5.8411886    6.5668053    5.0536231  
   7 H       4.8164387    5.2034382    3.8611457  
   8 O       2.7778433 *  3.7132740    2.8574151 *
   9 H       2.4570570 *  3.3741638    2.2356517 *
  10 H       2.1716182 *  3.0512290    2.5593912 *
  11 O       0.0000000    0.9593452 *  0.9700126 *
  12 H       0.9593452 *  0.0000000    1.5185360 *
  13 H       0.9700126 *  1.5185360 *  0.0000000  

  * ... LESS THAN  3.000


 MOPAC ONE- AND TWO-ELECTRON INTEGRALS REQUIRE      2933 WORDS.
 ...... END OF ONE- AND TWO-ELECTRON INTEGRALS......
 STEP CPU TIME =     0.00 TOTAL CPU TIME =          0.2 (      0.0 MIN)
 TOTAL WALL CLOCK TIME=          0.2 SECONDS, CPU UTILIZATION IS   100.00%
 ...... END OF ONE-ELECTRON INTEGRALS ......
 STEP CPU TIME =     0.00 TOTAL CPU TIME =          0.2 (      0.0 MIN)
 TOTAL WALL CLOCK TIME=          0.2 SECONDS, CPU UTILIZATION IS   100.00%

          --------------------------
               R-AM1 SCF CALCULATION
          --------------------------
     DENSITY MATRIX CONV=  1.00E-05

 ITER EX DEM     TOTAL ENERGY        E CHANGE  DENSITY CHANGE    DIIS ERROR
   1  0  0      -62.0704484392   -62.0704484392   0.019842219   0.000000000
   2  1  0      -62.0721942707    -0.0017458315   0.008665283   0.000000000
   3  2  0      -62.0725433265    -0.0003490557   0.004848521   0.000000000
   4  3  0      -62.0726197389    -0.0000764125   0.002709537   0.000000000
   5  0  0      -62.0726378208    -0.0000180819   0.003404995   0.000000000
   6  1  0      -62.0726441806    -0.0000063598   0.000030570   0.000000000
   7  2  0      -62.0726441844    -0.0000000037   0.000018424   0.000000000
   8  3  0      -62.0726441853    -0.0000000009   0.000011456   0.000000000
   9  4  0      -62.0726441856    -0.0000000003   0.000007092   0.000000000

          -----------------
          DENSITY CONVERGED
          -----------------
     TIME TO FORM FOCK OPERATORS=       0.0 SECONDS (       0.0 SEC/ITER)
     TIME TO SOLVE SCF EQUATIONS=       0.0 SECONDS (       0.0 SEC/ITER)

 FINAL R-AM1 ENERGY IS      -62.0726441856 AFTER   9 ITERATIONS

 HEAT OF FORMATION IS      -174.21749 KCAL/MOL
 
 ...... END OF RHF CALCULATION ......
 STEP CPU TIME =     0.01 TOTAL CPU TIME =          0.2 (      0.0 MIN)
 TOTAL WALL CLOCK TIME=          0.2 SECONDS, CPU UTILIZATION IS   100.00%

          NSERCH= 14     ENERGY=     -62.0726442

                                 -----------------------
                                 GRADIENT (HARTREE/BOHR)
                                 -----------------------
        ATOM     ZNUC       DE/DX         DE/DY         DE/DZ
 --------------------------------------------------------------
    1  CL          17.0    -0.0014122     0.0003952     0.0009847
    2  C            6.0     0.0004465    -0.0011841    -0.0022271
    3  C            6.0     0.0015550     0.0021963    -0.0022578
    4  O            8.0    -0.0009377    -0.0010718     0.0024420
    5  H            1.0     0.0003627    -0.0001696     0.0006695
    6  H            1.0     0.0001668     0.0000506     0.0004419
    7  H            1.0    -0.0002112    -0.0001856     0.0002269
    8  O            8.0     0.0010310    -0.0036507     0.0001448
    9  H            1.0     0.0001564     0.0021482     0.0011308
   10  H            1.0    -0.0004073     0.0008891    -0.0009196
   11  O            8.0    -0.0007034    -0.0014911    -0.0066741
   12  H            1.0    -0.0001019    -0.0004307     0.0005707
   13  H            1.0     0.0000553     0.0025042     0.0054673

          MAXIMUM GRADIENT = 0.0066741    RMS GRADIENT = 0.0018747

 NSERCH:  14  E=      -62.0726441856  GRAD. MAX=  0.0066741  R.M.S.=  0.0018747

          HESSIAN UPDATED USING THE BFGS FORMULA
             ACTUAL ENERGY CHANGE WAS  -0.0001196643
          PREDICTED ENERGY CHANGE WAS  -0.0001931657 RATIO=  0.619
          MIN SEARCH, CORRECT HESSIAN, TRYING PURE NR STEP
               NR STEP HAS LENGTH         =   8.325121
          TRIM/QA LAMBDA FOR NON-TS MODES =  -0.00347138
          TRIM/QA STEP HAS LENGTH         =   0.212132
          RADIUS OF STEP TAKEN=   0.21213  CURRENT TRUST RADIUS=   0.21213

 BEGINNING GEOMETRY SEARCH POINT NSERCH=  15 ...

 COORDINATES OF ALL ATOMS ARE (ANGS)
   ATOM   CHARGE       X              Y              Z
 ------------------------------------------------------------
 CL         17.0   1.3218062534   0.1604368887   0.6121563150
 C           6.0   2.7979013857  -0.0760928671  -0.2956223950
 C           6.0   3.0534654578   1.0830419728  -1.2134954433
 O           8.0   3.5754676903   0.9339176182  -2.3171232079
 H           1.0   2.6969597415  -1.0376105660  -0.8578928010
 H           1.0   3.6340140109  -0.1662495989   0.4441910685
 H           1.0   2.7519864681   2.0828066994  -0.8304539987
 O           8.0   4.5030062376  -1.6338094759  -4.0110091510
 H           1.0   4.4304953193  -0.7552974928  -3.6112657499
 H           1.0   4.1585385544  -1.5066361052  -4.9055144234
 O           8.0   3.2692300115   0.4304022704  -5.3512582734
 H           1.0   3.0378328514   1.1150341116  -5.9832150831
 H           1.0   3.1913960182   0.8554065448  -4.4920868567

          INTERNUCLEAR DISTANCES (ANGS.)
          ------------------------------

                1 CL         2 C          3 C          4 O          5 H     

   1 CL      0.0000000    1.7489612 *  2.6800836 *  3.7759689    2.3425220 *
   2 C       1.7489612 *  0.0000000    1.5004658 *  2.3898109 *  1.1184156 *
   3 C       2.6800836 *  1.5004658 *  0.0000000    1.2299263 *  2.1796139 *
   4 O       3.7759689    2.3898109 *  1.2299263 *  0.0000000    2.6053892 *
   5 H       2.3425220 *  1.1184156 *  2.1796139 *  2.6053892 *  0.0000000  
   6 H       2.3412051 *  1.1200609 *  2.1553864 *  2.9729871 *  1.8255857 *
   7 H       2.7967920 *  2.2246349 *  1.1122679 *  2.0514026 *  3.1210230  
   8 O       5.8917750    4.3746957    4.1603525    3.2129114    3.6823090  
   9 H       5.3235149    3.7576818    3.3203924    2.2933218 *  3.2658703  
  10 H       6.4242410    5.0148671    4.6431265    3.6050025    4.3289073  
  11 O       6.2791444    5.1027583    4.1944695    3.0908389    4.7616056  
  12 H       6.8814916    5.8159317    4.7698525    3.7097283    5.5694705  
  13 H       5.4801138    4.3165777    3.2893775    2.2100095 *  4.1273899  

                6 H          7 H          8 O          9 H         10 H     

   1 CL      2.3412051 *  2.7967920 *  5.8917750    5.3235149    6.4242410  
   2 C       1.1200609 *  2.2246349 *  4.3746957    3.7576818    5.0148671  
   3 C       2.1553864 *  1.1122679 *  4.1603525    3.3203924    4.6431265  
   4 O       2.9729871 *  2.0514026 *  3.2129114    2.2933218 *  3.6050025  
   5 H       1.8255857 *  3.1210230    3.6823090    3.2658703    4.3289073  
   6 H       0.0000000    2.7314734 *  4.7705019    4.1746964    5.5399559  
   7 H       2.7314734 *  0.0000000    5.1956941    4.3133678    5.6096886  
   8 O       4.7705019    5.1956941    0.0000000    0.9679028 *  0.9669388 *
   9 H       4.1746964    4.3133678    0.9679028 *  0.0000000    1.5210358 *
  10 H       5.5399559    5.6096886    0.9669388 *  1.5210358 *  0.0000000  
  11 O       5.8374904    4.8410384    2.7530786 *  2.4045779 *  2.1775387 *
  12 H       6.5809323    5.2506417    3.6867968    3.3262280    3.0480444  
  13 H       5.0602897    3.8867914    2.8544620 *  2.2148545 *  2.5856397 *

               11 O         12 H         13 H     

   1 CL      6.2791444    6.8814916    5.4801138  
   2 C       5.1027583    5.8159317    4.3165777  
   3 C       4.1944695    4.7698525    3.2893775  
   4 O       3.0908389    3.7097283    2.2100095 *
   5 H       4.7616056    5.5694705    4.1273899  
   6 H       5.8374904    6.5809323    5.0602897  
   7 H       4.8410384    5.2506417    3.8867914  
   8 O       2.7530786 *  3.6867968    2.8544620 *
   9 H       2.4045779 *  3.3262280    2.2148545 *
  10 H       2.1775387 *  3.0480444    2.5856397 *
  11 O       0.0000000    0.9600181 *  0.9616976 *
  12 H       0.9600181 *  0.0000000    1.5213321 *
  13 H       0.9616976 *  1.5213321 *  0.0000000  

  * ... LESS THAN  3.000


 MOPAC ONE- AND TWO-ELECTRON INTEGRALS REQUIRE      2933 WORDS.
 ...... END OF ONE- AND TWO-ELECTRON INTEGRALS......
 STEP CPU TIME =     0.01 TOTAL CPU TIME =          0.2 (      0.0 MIN)
 TOTAL WALL CLOCK TIME=          0.2 SECONDS, CPU UTILIZATION IS   100.00%
 ...... END OF ONE-ELECTRON INTEGRALS ......
 STEP CPU TIME =     0.00 TOTAL CPU TIME =          0.2 (      0.0 MIN)
 TOTAL WALL CLOCK TIME=          0.2 SECONDS, CPU UTILIZATION IS   100.00%

          --------------------------
               R-AM1 SCF CALCULATION
          --------------------------
     DENSITY MATRIX CONV=  1.00E-05

 ITER EX DEM     TOTAL ENERGY        E CHANGE  DENSITY CHANGE    DIIS ERROR
   1  0  0      -62.0700726830   -62.0700726830   0.036905540   0.000000000
   2  1  0      -62.0721115527    -0.0020388698   0.019933099   0.000000000
   3  2  0      -62.0726065152    -0.0004949625   0.010815925   0.000000000
   4  3  0      -62.0727381980    -0.0001316827   0.005890953   0.000000000
   5  0  0      -62.0727751208    -0.0000369229   0.007139882   0.000000000
   6  1  0      -62.0727904647    -0.0000153439   0.000110655   0.000000000
   7  2  0      -62.0727904836    -0.0000000189   0.000083578   0.000000000
   8  3  0      -62.0727904927    -0.0000000091   0.000062069   0.000000000
   9  4  0      -62.0727904974    -0.0000000047   0.000045748   0.000000000
  10  5  0      -62.0727904999    -0.0000000025   0.000033592   0.000000000
  11  6  0      -62.0727905012    -0.0000000013   0.000024617   0.000000000
  12  7  0      -62.0727905018    -0.0000000007   0.000018019   0.000000000
  13  8  0      -62.0727905022    -0.0000000004   0.000013180   0.000000000

          ----------------
          ENERGY CONVERGED
          ----------------
     TIME TO FORM FOCK OPERATORS=       0.0 SECONDS (       0.0 SEC/ITER)
     TIME TO SOLVE SCF EQUATIONS=       0.0 SECONDS (       0.0 SEC/ITER)

 FINAL R-AM1 ENERGY IS      -62.0727905022 AFTER  13 ITERATIONS

 HEAT OF FORMATION IS      -174.30931 KCAL/MOL
 
 ...... END OF RHF CALCULATION ......
 STEP CPU TIME =     0.01 TOTAL CPU TIME =          0.2 (      0.0 MIN)
 TOTAL WALL CLOCK TIME=          0.2 SECONDS, CPU UTILIZATION IS   100.00%

          NSERCH= 15     ENERGY=     -62.0727905

                                 -----------------------
                                 GRADIENT (HARTREE/BOHR)
                                 -----------------------
        ATOM     ZNUC       DE/DX         DE/DY         DE/DZ
 --------------------------------------------------------------
    1  CL          17.0    -0.0008018     0.0000574     0.0002356
    2  C            6.0     0.0009866     0.0000075    -0.0012238
    3  C            6.0     0.0009040     0.0018011    -0.0036313
    4  O            8.0    -0.0009739    -0.0005202     0.0035315
    5  H            1.0    -0.0002796    -0.0003601     0.0005747
    6  H            1.0     0.0002252    -0.0004587     0.0009156
    7  H            1.0     0.0000267    -0.0004496     0.0001147
    8  O            8.0     0.0017953    -0.0045787     0.0007987
    9  H            1.0     0.0000583     0.0041009     0.0030972
   10  H            1.0    -0.0012552    -0.0002248    -0.0036394
   11  O            8.0    -0.0009058     0.0032338     0.0000146
   12  H            1.0    -0.0001293    -0.0008677    -0.0010117
   13  H            1.0     0.0003496    -0.0017409     0.0002236

          MAXIMUM GRADIENT = 0.0045787    RMS GRADIENT = 0.0017420

 NSERCH:  15  E=      -62.0727905022  GRAD. MAX=  0.0045787  R.M.S.=  0.0017420

          HESSIAN UPDATED USING THE BFGS FORMULA
             ACTUAL ENERGY CHANGE WAS  -0.0001463166
          PREDICTED ENERGY CHANGE WAS  -0.0002430854 RATIO=  0.602
          MIN SEARCH, CORRECT HESSIAN, TRYING PURE NR STEP
               NR STEP HAS LENGTH         =   1.156734
          TRIM/QA LAMBDA FOR NON-TS MODES =  -0.00296362
          TRIM/QA STEP HAS LENGTH         =   0.212132
          RADIUS OF STEP TAKEN=   0.21213  CURRENT TRUST RADIUS=   0.21213

 BEGINNING GEOMETRY SEARCH POINT NSERCH=  16 ...

 COORDINATES OF ALL ATOMS ARE (ANGS)
   ATOM   CHARGE       X              Y              Z
 ------------------------------------------------------------
 CL         17.0   1.3293494128   0.1552375129   0.6201644145
 C           6.0   2.7962824077  -0.0801173450  -0.2894689509
 C           6.0   3.0461150438   1.0776735019  -1.2061332686
 O           8.0   3.5760026315   0.9688680586  -2.3182769941
 H           1.0   2.6869336041  -1.0300160852  -0.8755936281
 H           1.0   3.6442678612  -0.1752457393   0.4342057754
 H           1.0   2.7447492769   2.0790056062  -0.8270519562
 O           8.0   4.5029476059  -1.6155043266  -4.0173676429
 H           1.0   4.3835622698  -0.7627738033  -3.6076704229
 H           1.0   4.1695532774  -1.5108727575  -4.9155687942
 O           8.0   3.2780148116   0.4147140278  -5.3318432463
 H           1.0   3.0192779828   1.0720552882  -5.9751546853
 H           1.0   3.2450438145   0.8923260613  -4.5028306003

          INTERNUCLEAR DISTANCES (ANGS.)
          ------------------------------

                1 CL         2 C          3 C          4 O          5 H     

   1 CL      0.0000000    1.7420440 *  2.6708680 *  3.7873319    2.3420404 *
   2 C       1.7420440 *  0.0000000    1.4977214 *  2.4133786 *  1.1215199 *
   3 C       2.6708680 *  1.4977214 *  0.0000000    1.2367227 *  2.1634748 *
   4 O       3.7873319    2.4133786 *  1.2367227 *  0.0000000    2.6205566 *
   5 H       2.3420404 *  1.1215199 *  2.1634748 *  2.6205566 *  0.0000000  
   6 H       2.3457722 *  1.1188538 *  2.1490243 *  2.9815798 *  1.8337654 *
   7 H       2.7926109 *  2.2256377 *  1.1122904 *  2.0364527 *  3.1099381  
   8 O       5.8918550    4.3780530    4.1567543    3.2287949    3.6757921  
   9 H       5.2958048    3.7411146    3.3080798    2.3050535 *  3.2271057  
  10 H       6.4410421    5.0332627    4.6607507    3.6396898    4.3302175  
  11 O       6.2682549    5.0894462    4.1850658    3.0785492    4.7217351  
  12 H       6.8698361    5.8055362    4.7691002    3.7004519    5.5258194  
  13 H       5.5189005    4.3473497    3.3078905    2.2108068 *  4.1429138  

                6 H          7 H          8 O          9 H         10 H     

   1 CL      2.3457722 *  2.7926109 *  5.8918550    5.2958048    6.4410421  
   2 C       1.1188538 *  2.2256377 *  4.3780530    3.7411146    5.0332627  
   3 C       2.1490243 *  1.1122904 *  4.1567543    3.3080798    4.6607507  
   4 O       2.9815798 *  2.0364527 *  3.2287949    2.3050535 *  3.6396898  
   5 H       1.8337654 *  3.1099381    3.6757921    3.2271057    4.3302175  
   6 H       0.0000000    2.7352429 *  4.7569088    4.1507239    5.5389450  
   7 H       2.7352429 *  0.0000000    5.1883311    4.3003787    5.6243456  
   8 O       4.7569088    5.1883311    0.0000000    0.9535481 *  0.9637763 *
   9 H       4.1507239    4.3003787    0.9535481 *  0.0000000    1.5218574 *
  10 H       5.5389450    5.6243456    0.9637763 *  1.5218574 *  0.0000000  
  11 O       5.8077117    4.8319130    2.7111055 *  2.3625166 *  2.1624083 *
  12 H       6.5594416    5.2528351    3.6410414    3.2913297    3.0194988  
  13 H       5.0668943    3.8948494    2.8473162 *  2.1992934 *  2.6077644 *

               11 O         12 H         13 H     

   1 CL      6.2682549    6.8698361    5.5189005  
   2 C       5.0894462    5.8055362    4.3473497  
   3 C       4.1850658    4.7691002    3.3078905  
   4 O       3.0785492    3.7004519    2.2108068 *
   5 H       4.7217351    5.5258194    4.1429138  
   6 H       5.8077117    6.5594416    5.0668943  
   7 H       4.8319130    5.2528351    3.8948494  
   8 O       2.7111055 *  3.6410414    2.8473162 *
   9 H       2.3625166 *  3.2913297    2.1992934 *
  10 H       2.1624083 *  3.0194988    2.6077644 *
  11 O       0.0000000    0.9554538 *  0.9573204 *
  12 H       0.9554538 *  0.0000000    1.5003370 *
  13 H       0.9573204 *  1.5003370 *  0.0000000  

  * ... LESS THAN  3.000


 MOPAC ONE- AND TWO-ELECTRON INTEGRALS REQUIRE      2933 WORDS.
 ...... END OF ONE- AND TWO-ELECTRON INTEGRALS......
 STEP CPU TIME =     0.00 TOTAL CPU TIME =          0.2 (      0.0 MIN)
 TOTAL WALL CLOCK TIME=          0.2 SECONDS, CPU UTILIZATION IS   100.00%
 ...... END OF ONE-ELECTRON INTEGRALS ......
 STEP CPU TIME =     0.00 TOTAL CPU TIME =          0.2 (      0.0 MIN)
 TOTAL WALL CLOCK TIME=          0.2 SECONDS, CPU UTILIZATION IS   100.00%

          --------------------------
               R-AM1 SCF CALCULATION
          --------------------------
     DENSITY MATRIX CONV=  1.00E-05

 ITER EX DEM     TOTAL ENERGY        E CHANGE  DENSITY CHANGE    DIIS ERROR
   1  0  0      -62.0690155605   -62.0690155605   0.023208322   0.000000000
   2  1  0      -62.0716931925    -0.0026776320   0.012297430   0.000000000
   3  2  0      -62.0723048522    -0.0006116597   0.006686308   0.000000000
   4  3  0      -62.0724642635    -0.0001594113   0.003649540   0.000000000
   5  0  0      -62.0725085129    -0.0000442494   0.004479332   0.000000000
   6  1  0      -62.0725267079    -0.0000181950   0.000083617   0.000000000
   7  2  0      -62.0725267229    -0.0000000150   0.000059839   0.000000000
   8  3  0      -62.0725267291    -0.0000000062   0.000044863   0.000000000
   9  4  0      -62.0725267321    -0.0000000030   0.000033357   0.000000000
  10  5  0      -62.0725267336    -0.0000000015   0.000024696   0.000000000
  11  6  0      -62.0725267344    -0.0000000008   0.000018236   0.000000000
  12  7  0      -62.0725267348    -0.0000000004   0.000013442   0.000000000

          ----------------
          ENERGY CONVERGED
          ----------------
     TIME TO FORM FOCK OPERATORS=       0.0 SECONDS (       0.0 SEC/ITER)
     TIME TO SOLVE SCF EQUATIONS=       0.0 SECONDS (       0.0 SEC/ITER)

 FINAL R-AM1 ENERGY IS      -62.0725267348 AFTER  12 ITERATIONS

 HEAT OF FORMATION IS      -174.14379 KCAL/MOL
 
 ...... END OF RHF CALCULATION ......
 STEP CPU TIME =     0.01 TOTAL CPU TIME =          0.2 (      0.0 MIN)
 TOTAL WALL CLOCK TIME=          0.2 SECONDS, CPU UTILIZATION IS   100.00%

          NSERCH= 16     ENERGY=     -62.0725267

                                 -----------------------
                                 GRADIENT (HARTREE/BOHR)
                                 -----------------------
        ATOM     ZNUC       DE/DX         DE/DY         DE/DZ
 --------------------------------------------------------------
    1  CL          17.0     0.0011696     0.0000218    -0.0017958
    2  C            6.0    -0.0012946     0.0016676     0.0067871
    3  C            6.0    -0.0061074    -0.0044664     0.0090332
    4  O            8.0     0.0050099     0.0036478    -0.0095796
    5  H            1.0    -0.0006418    -0.0002901    -0.0018149
    6  H            1.0     0.0003889     0.0001965     0.0000644
    7  H            1.0     0.0015430    -0.0005888    -0.0020970
    8  O            8.0    -0.0017197     0.0094046     0.0018876
    9  H            1.0     0.0020161    -0.0071667    -0.0000135
   10  H            1.0     0.0000658    -0.0026436    -0.0019246
   11  O            8.0    -0.0008730     0.0039622     0.0001326
   12  H            1.0     0.0007997    -0.0021406     0.0044263
   13  H            1.0    -0.0003564    -0.0016042    -0.0051059

          MAXIMUM GRADIENT = 0.0095796    RMS GRADIENT = 0.0038109

 NSERCH:  16  E=      -62.0725267348  GRAD. MAX=  0.0095796  R.M.S.=  0.0038109

          HESSIAN UPDATED USING THE BFGS FORMULA
             ACTUAL ENERGY CHANGE WAS   0.0002637674
          PREDICTED ENERGY CHANGE WAS  -0.0003054221 RATIO= -0.864
          MIN SEARCH, CORRECT HESSIAN, TRYING PURE NR STEP
               NR STEP HAS LENGTH         =   2.287338
          TRIM/QA LAMBDA FOR NON-TS MODES =  -0.00730478
          TRIM/QA STEP HAS LENGTH         =   0.106066
          RADIUS OF STEP TAKEN=   0.10607  CURRENT TRUST RADIUS=   0.10607

 BEGINNING GEOMETRY SEARCH POINT NSERCH=  17 ...

 COORDINATES OF ALL ATOMS ARE (ANGS)
   ATOM   CHARGE       X              Y              Z
 ------------------------------------------------------------
 CL         17.0   1.3377618448   0.1503738099   0.6333460168
 C           6.0   2.7972611433  -0.0822738504  -0.2986178359
 C           6.0   3.0438025860   1.0873064309  -1.2049415181
 O           8.0   3.5585465318   0.9627120444  -2.3168937781
 H           1.0   2.6890806204  -1.0324652530  -0.8789199302
 H           1.0   3.6479083372  -0.1789062753   0.4224562679
 H           1.0   2.7435312738   2.0834027506  -0.8134983628
 O           8.0   4.5019801133  -1.6230107201  -4.0099465358
 H           1.0   4.3818879184  -0.7579891480  -3.6125939275
 H           1.0   4.1594960980  -1.5109391502  -4.8979343160
 O           8.0   3.3003563211   0.4211801023  -5.3349868692
 H           1.0   3.0274103074   1.0650233497  -5.9975064374
 H           1.0   3.2330769045   0.9009359092  -4.5025527737

          INTERNUCLEAR DISTANCES (ANGS.)
          ------------------------------

                1 CL         2 C          3 C          4 O          5 H     

   1 CL      0.0000000    1.7472320 *  2.6772596 *  3.7809645    2.3477902 *
   2 C       1.7472320 *  0.0000000    1.5000411 *  2.3968706 *  1.1186229 *
   3 C       2.6772596 *  1.5000411 *  0.0000000    1.2316342 *  2.1738330 *
   4 O       3.7809645    2.3968706 *  1.2316342 *  0.0000000    2.6085383 *
   5 H       2.3477902 *  1.1186229 *  2.1738330 *  2.6085383 *  0.0000000  
   6 H       2.3430059 *  1.1193241 *  2.1486419 *  2.9690599 *  1.8279753 *
   7 H       2.7939483 *  2.2266890 *  1.1115748 *  2.0446015 *  3.1170304  
   8 O       5.8921419    4.3650770    4.1641510    3.2314790    3.6658800  
   9 H       5.3028137    3.7349793    3.3154756    2.3059797 *  3.2270586  
  10 H       6.4278462    5.0050455    4.6512200    3.6251705    4.3062206  
  11 O       6.2885698    5.0864117    4.1912789    3.0771423    4.7268674  
  12 H       6.9036005    5.8177823    4.7926448    3.7201455    5.5420081  
  13 H       5.5256691    4.3393209    3.3082924    2.2106225 *  4.1430287  

                6 H          7 H          8 O          9 H         10 H     

   1 CL      2.3430059 *  2.7939483 *  5.8921419    5.3028137    6.4278462  
   2 C       1.1193241 *  2.2266890 *  4.3650770    3.7349793    5.0050455  
   3 C       2.1486419 *  1.1115748 *  4.1641510    3.3154756    4.6512200  
   4 O       2.9690599 *  2.0446015 *  3.2314790    2.3059797 *  3.6251705  
   5 H       1.8279753 *  3.1170304    3.6658800    3.2270586    4.3062206  
   6 H       0.0000000    2.7319451 *  4.7393112    4.1419432    5.5084108  
   7 H       2.7319451 *  0.0000000    5.2006657    4.3119203    5.6219985  
   8 O       4.7393112    5.2006657    0.0000000    0.9594652 *  0.9583202 *
   9 H       4.1419432    4.3119203    0.9594652 *  0.0000000    1.5061513 *
  10 H       5.5084108    5.6219985    0.9583202 *  1.5061513 *  0.0000000  
  11 O       5.7990557    4.8494223    2.7163114 *  2.3509122 *  2.1592177 *
  12 H       6.5687365    5.2907111    3.6538032    3.2932950    3.0209700  
  13 H       5.0590373    3.9047414    2.8675918 *  2.2054083 *  2.6137560 *

               11 O         12 H         13 H     

   1 CL      6.2885698    6.9036005    5.5256691  
   2 C       5.0864117    5.8177823    4.3393209  
   3 C       4.1912789    4.7926448    3.3082924  
   4 O       3.0771423    3.7201455    2.2106225 *
   5 H       4.7268674    5.5420081    4.1430287  
   6 H       5.7990557    6.5687365    5.0590373  
   7 H       4.8494223    5.2907111    3.9047414  
   8 O       2.7163114 *  3.6538032    2.8675918 *
   9 H       2.3509122 *  3.2932950    2.2054083 *
  10 H       2.1592177 *  3.0209700    2.6137560 *
  11 O       0.0000000    0.9633098 *  0.9631400 *
  12 H       0.9633098 *  0.0000000    1.5179295 *
  13 H       0.9631400 *  1.5179295 *  0.0000000  

  * ... LESS THAN  3.000


 MOPAC ONE- AND TWO-ELECTRON INTEGRALS REQUIRE      2933 WORDS.
 ...... END OF ONE- AND TWO-ELECTRON INTEGRALS......
 STEP CPU TIME =     0.00 TOTAL CPU TIME =          0.2 (      0.0 MIN)
 TOTAL WALL CLOCK TIME=          0.2 SECONDS, CPU UTILIZATION IS   100.00%
 ...... END OF ONE-ELECTRON INTEGRALS ......
 STEP CPU TIME =     0.00 TOTAL CPU TIME =          0.2 (      0.0 MIN)
 TOTAL WALL CLOCK TIME=          0.2 SECONDS, CPU UTILIZATION IS   100.00%

          --------------------------
               R-AM1 SCF CALCULATION
          --------------------------
     DENSITY MATRIX CONV=  1.00E-05

 ITER EX DEM     TOTAL ENERGY        E CHANGE  DENSITY CHANGE    DIIS ERROR
   1  0  0      -62.0720020206   -62.0720020206   0.016443881   0.000000000
   2  1  0      -62.0727436278    -0.0007416072   0.008800810   0.000000000
   3  2  0      -62.0729112129    -0.0001675852   0.004756957   0.000000000
   4  3  0      -62.0729552036    -0.0000439906   0.002591052   0.000000000
   5  0  0      -62.0729676207    -0.0000124171   0.003206280   0.000000000
   6  1  0      -62.0729730257    -0.0000054050   0.000109743   0.000000000
   7  2  0      -62.0729730407    -0.0000000150   0.000079482   0.000000000
   8  3  0      -62.0729730479    -0.0000000072   0.000057715   0.000000000
   9  4  0      -62.0729730516    -0.0000000037   0.000042003   0.000000000
  10  5  0      -62.0729730535    -0.0000000019   0.000030616   0.000000000
  11  6  0      -62.0729730546    -0.0000000010   0.000022338   0.000000000
  12  7  0      -62.0729730551    -0.0000000005   0.000016308   0.000000000
  13  8  0      -62.0729730554    -0.0000000003   0.000011911   0.000000000

          ----------------
          ENERGY CONVERGED
          ----------------
     TIME TO FORM FOCK OPERATORS=       0.0 SECONDS (       0.0 SEC/ITER)
     TIME TO SOLVE SCF EQUATIONS=       0.0 SECONDS (       0.0 SEC/ITER)

 FINAL R-AM1 ENERGY IS      -62.0729730554 AFTER  13 ITERATIONS

 HEAT OF FORMATION IS      -174.42387 KCAL/MOL
 
 ...... END OF RHF CALCULATION ......
 STEP CPU TIME =     0.01 TOTAL CPU TIME =          0.2 (      0.0 MIN)
 TOTAL WALL CLOCK TIME=          0.2 SECONDS, CPU UTILIZATION IS   100.00%

          NSERCH= 17     ENERGY=     -62.0729731

                                 -----------------------
                                 GRADIENT (HARTREE/BOHR)
                                 -----------------------
        ATOM     ZNUC       DE/DX         DE/DY         DE/DZ
 --------------------------------------------------------------
    1  CL          17.0    -0.0005030     0.0004631     0.0000011
    2  C            6.0    -0.0001611    -0.0008971     0.0011177
    3  C            6.0    -0.0003933     0.0001971     0.0003939
    4  O            8.0     0.0002937     0.0010086     0.0002735
    5  H            1.0     0.0000927    -0.0000093    -0.0002714
    6  H            1.0     0.0001919     0.0002049     0.0001826
    7  H            1.0     0.0005567    -0.0007990    -0.0011319
    8  O            8.0    -0.0010275     0.0022103    -0.0027486
    9  H            1.0     0.0002101    -0.0023369    -0.0008288
   10  H            1.0     0.0011078    -0.0002042     0.0035332
   11  O            8.0     0.0007602    -0.0012584     0.0006925
   12  H            1.0    -0.0010139     0.0016585    -0.0017619
   13  H            1.0    -0.0001144    -0.0002378     0.0005483

          MAXIMUM GRADIENT = 0.0035332    RMS GRADIENT = 0.0011304

 NSERCH:  17  E=      -62.0729730554  GRAD. MAX=  0.0035332  R.M.S.=  0.0011304

          HESSIAN UPDATED USING THE BFGS FORMULA
             ACTUAL ENERGY CHANGE WAS  -0.0004463206
          PREDICTED ENERGY CHANGE WAS  -0.0004751298 RATIO=  0.939
          MIN SEARCH, CORRECT HESSIAN, TRYING PURE NR STEP
               NR STEP HAS LENGTH         =   1.808389
          TRIM/QA LAMBDA FOR NON-TS MODES =  -0.00168632
          TRIM/QA STEP HAS LENGTH         =   0.212132
          RADIUS OF STEP TAKEN=   0.21213  CURRENT TRUST RADIUS=   0.21213

 BEGINNING GEOMETRY SEARCH POINT NSERCH=  18 ...

 COORDINATES OF ALL ATOMS ARE (ANGS)
   ATOM   CHARGE       X              Y              Z
 ------------------------------------------------------------
 CL         17.0   1.3524761974   0.1207389955   0.6516010843
 C           6.0   2.8077286855  -0.0779859789  -0.3033686671
 C           6.0   3.0365074751   1.1021846680  -1.2017045570
 O           8.0   3.5545502381   0.9767600213  -2.3131162513
 H           1.0   2.7039759957  -1.0276526710  -0.8827312693
 H           1.0   3.6634136662  -0.1742500054   0.4119683812
 H           1.0   2.7076878801   2.0906492734  -0.7943613317
 O           8.0   4.4472223004  -1.6382134054  -3.9817477532
 H           1.0   4.3538642608  -0.7422213964  -3.6240918697
 H           1.0   4.1776307148  -1.5320596345  -4.9183712850
 O           8.0   3.3117241265   0.4155492462  -5.3414819356
 H           1.0   3.0644839520   1.0649300606  -6.0037360501
 H           1.0   3.2408345074   0.9069208265  -4.5114484955

          INTERNUCLEAR DISTANCES (ANGS.)
          ------------------------------

                1 CL         2 C          3 C          4 O          5 H     

   1 CL      0.0000000    1.7519186 *  2.6895983 *  3.7909697    2.3451079 *
   2 C       1.7519186 *  0.0000000    1.5007164 *  2.3894177 *  1.1172701 *
   3 C       2.6895983 *  1.5007164 *  0.0000000    1.2326133 *  2.1791118 *
   4 O       3.7909697    2.3894177 *  1.2326133 *  0.0000000    2.6052155 *
   5 H       2.3451079 *  1.1172701 *  2.1791118 *  2.6052155 *  0.0000000  
   6 H       2.3419809 *  1.1194510 *  2.1508689 *  2.9601962 *  1.8234758 *
   7 H       2.7942714 *  2.2257720 *  1.1185317 *  2.0650767 *  3.1195561  
   8 O       5.8428836    4.3188797    4.1507274    3.2278910    3.6077133  
   9 H       5.2947692    3.7227606    3.3174121    2.3048768 *  3.2122671  
  10 H       6.4604825    5.0288379    4.6962769    3.6701170    4.3257918  
  11 O       6.3121003    5.0872560    4.2053501    3.0894855    4.7257430  
  12 H       6.9365683    5.8194818    4.8022575    3.7240587    5.5437856  
  13 H       5.5534728    4.3434500    3.3217890    2.2217020 *  4.1470930  

                6 H          7 H          8 O          9 H         10 H     

   1 CL      2.3419809 *  2.7942714 *  5.8428836    5.2947692    6.4604825  
   2 C       1.1194510 *  2.2257720 *  4.3188797    3.7227606    5.0288379  
   3 C       2.1508689 *  1.1185317 *  4.1507274    3.3174121    4.6962769  
   4 O       2.9601962 *  2.0650767 *  3.2278910    2.3048768 *  3.6701170  
   5 H       1.8234758 *  3.1195561    3.6077133    3.2122671    4.3257918  
   6 H       0.0000000    2.7383228 *  4.6970508    4.1338960    5.5245441  
   7 H       2.7383228 *  0.0000000    5.2047891    4.3292526    5.6826235  
   8 O       4.6970508    5.2047891    0.0000000    0.9692446 *  0.9804141 *
   9 H       4.1338960    4.3292526    0.9692446 *  0.0000000    1.5264540 *
  10 H       5.5245441    5.6826235    0.9804141 *  1.5264540 *  0.0000000  
  11 O       5.7942850    4.8833519    2.7122268 *  2.3186025 *  2.1730157 *
  12 H       6.5616726    5.3213709    3.6479291    3.2543823    3.0267917  
  13 H       5.0584125    3.9372827    2.8659488 *  2.1785103 *  2.6442010 *

               11 O         12 H         13 H     

   1 CL      6.3121003    6.9365683    5.5534728  
   2 C       5.0872560    5.8194818    4.3434500  
   3 C       4.2053501    4.8022575    3.3217890  
   4 O       3.0894855    3.7240587    2.2217020 *
   5 H       4.7257430    5.5437856    4.1470930  
   6 H       5.7942850    6.5616726    5.0584125  
   7 H       4.8833519    5.3213709    3.9372827  
   8 O       2.7122268 *  3.6479291    2.8659488 *
   9 H       2.3186025 *  3.2543823    2.1785103 *
  10 H       2.1730157 *  3.0267917    2.6442010 *
  11 O       0.0000000    0.9598977 *  0.9671747 *
  12 H       0.9598977 *  0.0000000    1.5109562 *
  13 H       0.9671747 *  1.5109562 *  0.0000000  

  * ... LESS THAN  3.000


 MOPAC ONE- AND TWO-ELECTRON INTEGRALS REQUIRE      2933 WORDS.
 ...... END OF ONE- AND TWO-ELECTRON INTEGRALS......
 STEP CPU TIME =     0.00 TOTAL CPU TIME =          0.2 (      0.0 MIN)
 TOTAL WALL CLOCK TIME=          0.2 SECONDS, CPU UTILIZATION IS   100.00%
 ...... END OF ONE-ELECTRON INTEGRALS ......
 STEP CPU TIME =     0.00 TOTAL CPU TIME =          0.2 (      0.0 MIN)
 TOTAL WALL CLOCK TIME=          0.2 SECONDS, CPU UTILIZATION IS   100.00%

          --------------------------
               R-AM1 SCF CALCULATION
          --------------------------
     DENSITY MATRIX CONV=  1.00E-05

 ITER EX DEM     TOTAL ENERGY        E CHANGE  DENSITY CHANGE    DIIS ERROR
   1  0  0      -62.0695684324   -62.0695684324   0.034744720   0.000000000
   2  1  0      -62.0718443551    -0.0022759228   0.019346490   0.000000000
   3  2  0      -62.0724483756    -0.0006040204   0.010769865   0.000000000
   4  3  0      -62.0726251470    -0.0001767714   0.006007546   0.000000000
   5  0  0      -62.0726792480    -0.0000541010   0.007705680   0.000000000
   6  1  0      -62.0727045512    -0.0000253032   0.000206411   0.000000000
   7  2  0      -62.0727046073    -0.0000000561   0.000154102   0.000000000
   8  3  0      -62.0727046355    -0.0000000283   0.000113775   0.000000000
   9  4  0      -62.0727046504    -0.0000000148   0.000083558   0.000000000
  10  5  0      -62.0727046582    -0.0000000078   0.000061207   0.000000000
  11  6  0      -62.0727046624    -0.0000000042   0.000044775   0.000000000
  12  7  0      -62.0727046646    -0.0000000022   0.000032733   0.000000000
  13  8  0      -62.0727046658    -0.0000000012   0.000023920   0.000000000
  14  9  0      -62.0727046664    -0.0000000006   0.000017477   0.000000000
  15 10  0      -62.0727046667    -0.0000000003   0.000012768   0.000000000

          ----------------
          ENERGY CONVERGED
          ----------------
     TIME TO FORM FOCK OPERATORS=       0.0 SECONDS (       0.0 SEC/ITER)
     TIME TO SOLVE SCF EQUATIONS=       0.0 SECONDS (       0.0 SEC/ITER)

 FINAL R-AM1 ENERGY IS      -62.0727046667 AFTER  15 ITERATIONS

 HEAT OF FORMATION IS      -174.25545 KCAL/MOL
 
 ...... END OF RHF CALCULATION ......
 STEP CPU TIME =     0.01 TOTAL CPU TIME =          0.2 (      0.0 MIN)
 TOTAL WALL CLOCK TIME=          0.2 SECONDS, CPU UTILIZATION IS   100.00%

          NSERCH= 18     ENERGY=     -62.0727047

                                 -----------------------
                                 GRADIENT (HARTREE/BOHR)
                                 -----------------------
        ATOM     ZNUC       DE/DX         DE/DY         DE/DZ
 --------------------------------------------------------------
    1  CL          17.0    -0.0022658    -0.0001309     0.0016208
    2  C            6.0     0.0011210    -0.0007894    -0.0021545
    3  C            6.0     0.0016264     0.0007311    -0.0002314
    4  O            8.0     0.0015973    -0.0025335    -0.0024614
    5  H            1.0     0.0000953     0.0001648     0.0009742
    6  H            1.0    -0.0000154    -0.0002079     0.0003177
    7  H            1.0    -0.0021061     0.0028904     0.0027260
    8  O            8.0     0.0047816    -0.0077357     0.0114185
    9  H            1.0    -0.0006217     0.0058648     0.0022013
   10  H            1.0    -0.0037859     0.0015285    -0.0139247
   11  O            8.0     0.0004412    -0.0026747    -0.0040583
   12  H            1.0    -0.0002970     0.0005092     0.0013909
   13  H            1.0    -0.0005707     0.0023832     0.0021809

          MAXIMUM GRADIENT = 0.0139247    RMS GRADIENT = 0.0037692

 NSERCH:  18  E=      -62.0727046667  GRAD. MAX=  0.0139247  R.M.S.=  0.0037692

          HESSIAN UPDATED USING THE BFGS FORMULA
             ACTUAL ENERGY CHANGE WAS   0.0002683886
          PREDICTED ENERGY CHANGE WAS  -0.0002386769 RATIO= -1.124
          MIN SEARCH, CORRECT HESSIAN, TRYING PURE NR STEP
               NR STEP HAS LENGTH         =   0.912926
          TRIM/QA LAMBDA FOR NON-TS MODES =  -0.00705210
          TRIM/QA STEP HAS LENGTH         =   0.106066
          RADIUS OF STEP TAKEN=   0.10607  CURRENT TRUST RADIUS=   0.10607

 BEGINNING GEOMETRY SEARCH POINT NSERCH=  19 ...

 COORDINATES OF ALL ATOMS ARE (ANGS)
   ATOM   CHARGE       X              Y              Z
 ------------------------------------------------------------
 CL         17.0   1.3574755850   0.1198935256   0.6531632882
 C           6.0   2.8073925060  -0.0813476476  -0.3034193210
 C           6.0   3.0280550606   1.0978765243  -1.2033126797
 O           8.0   3.5336296520   0.9805192394  -2.3196294990
 H           1.0   2.7033810061  -1.0289952532  -0.8875011827
 H           1.0   3.6681589260  -0.1762590016   0.4056254440
 H           1.0   2.7171110728   2.0876815583  -0.7986622564
 O           8.0   4.4629325379  -1.6271086913  -3.9900936630
 H           1.0   4.3586187839  -0.7427537225  -3.6215015499
 H           1.0   4.1471901367  -1.5315809494  -4.8943078495
 O           8.0   3.3242735409   0.4193446749  -5.3348915360
 H           1.0   3.0694920672   1.0568786881  -6.0056923186
 H           1.0   3.2443891249   0.9112010549  -4.5123668764

          INTERNUCLEAR DISTANCES (ANGS.)
          ------------------------------

                1 CL         2 C          3 C          4 O          5 H     

   1 CL      0.0000000    1.7486587 *  2.6821241 *  3.7833610    2.3462851 *
   2 C       1.7486587 *  0.0000000    1.4996899 *  2.3916700 *  1.1180367 *
   3 C       2.6821241 *  1.4996899 *  0.0000000    1.2310734 *  2.1745652 *
   4 O       3.7833610    2.3916700 *  1.2310734 *  0.0000000    2.6035462 *
   5 H       2.3462851 *  1.1180367 *  2.1745652 *  2.6035462 *  0.0000000  
   6 H       2.3426990 *  1.1192281 *  2.1498456 *  2.9636546 *  1.8248649 *
   7 H       2.7979628 *  2.2266800 *  1.1136167 *  2.0508175 *  3.1179729  
   8 O       5.8528382    4.3268647    4.1533801    3.2332302    3.6166063  
   9 H       5.2937492    3.7220197    3.3175227    2.3119575 *  3.2088167  
  10 H       6.4252869    4.9974485    4.6679712    3.6491194    4.2885518  
  11 O       6.3098943    5.0826737    4.1973914    3.0741750    4.7183129  
  12 H       6.9389696    5.8206677    4.8027334    3.7159539    5.5390241  
  13 H       5.5560159    4.3464190    3.3213684    2.2128177 *  4.1468907  

                6 H          7 H          8 O          9 H         10 H     

   1 CL      2.3426990 *  2.7979628 *  5.8528382    5.2937492    6.4252869  
   2 C       1.1192281 *  2.2266800 *  4.3268647    3.7220197    4.9974485  
   3 C       2.1498456 *  1.1136167 *  4.1533801    3.3175227    4.6679712  
   4 O       2.9636546 *  2.0508175 *  3.2332302    2.3119575 *  3.6491194  
   5 H       1.8248649 *  3.1179729    3.6166063    3.2088167    4.2885518  
   6 H       0.0000000    2.7350005 *  4.6966985    4.1249731    5.4914171  
   7 H       2.7350005 *  0.0000000    5.1993070    4.3213809    5.6496460  
   8 O       4.6966985    5.1993070    0.0000000    0.9637558 *  0.9625082 *
   9 H       4.1249731    4.3213809    0.9637558 *  0.0000000    1.5122785 *
  10 H       5.4914171    5.6496460    0.9625082 *  1.5122785 *  0.0000000  
  11 O       5.7815687    4.8712801    2.7005549 *  2.3143137 *  2.1627336 *
  12 H       6.5562204    5.3197640    3.6342953    3.2534428    3.0160789  
  13 H       5.0545819    3.9311233    2.8636749 *  2.1841967 *  2.6321308 *

               11 O         12 H         13 H     

   1 CL      6.3098943    6.9389696    5.5560159  
   2 C       5.0826737    5.8206677    4.3464190  
   3 C       4.1973914    4.8027334    3.3213684  
   4 O       3.0741750    3.7159539    2.2128177 *
   5 H       4.7183129    5.5390241    4.1468907  
   6 H       5.7815687    6.5562204    5.0545819  
   7 H       4.8712801    5.3197640    3.9311233  
   8 O       2.7005549 *  3.6342953    2.8636749 *
   9 H       2.3143137 *  3.2534428    2.1841967 *
  10 H       2.1627336 *  3.0160789    2.6321308 *
  11 O       0.0000000    0.9598630 *  0.9616918 *
  12 H       0.9598630 *  0.0000000    1.5105733 *
  13 H       0.9616918 *  1.5105733 *  0.0000000  

  * ... LESS THAN  3.000


 MOPAC ONE- AND TWO-ELECTRON INTEGRALS REQUIRE      2933 WORDS.
 ...... END OF ONE- AND TWO-ELECTRON INTEGRALS......
 STEP CPU TIME =     0.01 TOTAL CPU TIME =          0.2 (      0.0 MIN)
 TOTAL WALL CLOCK TIME=          0.2 SECONDS, CPU UTILIZATION IS   100.00%
 ...... END OF ONE-ELECTRON INTEGRALS ......
 STEP CPU TIME =     0.00 TOTAL CPU TIME =          0.2 (      0.0 MIN)
 TOTAL WALL CLOCK TIME=          0.2 SECONDS, CPU UTILIZATION IS   100.00%

          --------------------------
               R-AM1 SCF CALCULATION
          --------------------------
     DENSITY MATRIX CONV=  1.00E-05

 ITER EX DEM     TOTAL ENERGY        E CHANGE  DENSITY CHANGE    DIIS ERROR
   1  0  0      -62.0719908569   -62.0719908569   0.022332579   0.000000000
   2  1  0      -62.0728284441    -0.0008375871   0.012390110   0.000000000
   3  2  0      -62.0730463048    -0.0002178607   0.006855681   0.000000000
   4  3  0      -62.0731089831    -0.0000626783   0.003794205   0.000000000
   5  0  0      -62.0731276965    -0.0000187134   0.004738835   0.000000000
   6  1  0      -62.0731359790    -0.0000082825   0.000076537   0.000000000
   7  2  0      -62.0731359863    -0.0000000073   0.000055304   0.000000000
   8  3  0      -62.0731359897    -0.0000000034   0.000040148   0.000000000
   9  4  0      -62.0731359915    -0.0000000018   0.000029214   0.000000000
  10  5  0      -62.0731359924    -0.0000000009   0.000021283   0.000000000
  11  6  0      -62.0731359929    -0.0000000005   0.000015517   0.000000000
  12  7  0      -62.0731359931    -0.0000000003   0.000011318   0.000000000

          ----------------
          ENERGY CONVERGED
          ----------------
     TIME TO FORM FOCK OPERATORS=       0.0 SECONDS (       0.0 SEC/ITER)
     TIME TO SOLVE SCF EQUATIONS=       0.0 SECONDS (       0.0 SEC/ITER)

 FINAL R-AM1 ENERGY IS      -62.0731359931 AFTER  12 ITERATIONS

 HEAT OF FORMATION IS      -174.52612 KCAL/MOL
 
 ...... END OF RHF CALCULATION ......
 STEP CPU TIME =     0.01 TOTAL CPU TIME =          0.2 (      0.0 MIN)
 TOTAL WALL CLOCK TIME=          0.2 SECONDS, CPU UTILIZATION IS   100.00%

          NSERCH= 19     ENERGY=     -62.0731360

                                 -----------------------
                                 GRADIENT (HARTREE/BOHR)
                                 -----------------------
        ATOM     ZNUC       DE/DX         DE/DY         DE/DZ
 --------------------------------------------------------------
    1  CL          17.0    -0.0010755     0.0001592     0.0005246
    2  C            6.0     0.0005610    -0.0003617    -0.0004117
    3  C            6.0     0.0005198     0.0001329    -0.0013266
    4  O            8.0    -0.0000784    -0.0002328     0.0013442
    5  H            1.0     0.0001641     0.0002125     0.0002923
    6  H            1.0     0.0000399    -0.0001076     0.0001299
    7  H            1.0    -0.0001070     0.0003703     0.0001036
    8  O            8.0     0.0005451    -0.0014060    -0.0008429
    9  H            1.0    -0.0002457     0.0011808     0.0005526
   10  H            1.0    -0.0000825     0.0000157    -0.0000137
   11  O            8.0     0.0001260     0.0002835    -0.0001484
   12  H            1.0    -0.0002406     0.0001323     0.0009840
   13  H            1.0    -0.0001261    -0.0003791    -0.0011879

          MAXIMUM GRADIENT = 0.0014060    RMS GRADIENT = 0.0005952

 NSERCH:  19  E=      -62.0731359931  GRAD. MAX=  0.0014060  R.M.S.=  0.0005952

          HESSIAN UPDATED USING THE BFGS FORMULA
             ACTUAL ENERGY CHANGE WAS  -0.0004313264
          PREDICTED ENERGY CHANGE WAS  -0.0004700815 RATIO=  0.918
          MIN SEARCH, CORRECT HESSIAN, TRYING PURE NR STEP
               NR STEP HAS LENGTH         =   1.059097
          TRIM/QA LAMBDA FOR NON-TS MODES =  -0.00198124
          TRIM/QA STEP HAS LENGTH         =   0.212132
          RADIUS OF STEP TAKEN=   0.21213  CURRENT TRUST RADIUS=   0.21213

 BEGINNING GEOMETRY SEARCH POINT NSERCH=  20 ...

 COORDINATES OF ALL ATOMS ARE (ANGS)
   ATOM   CHARGE       X              Y              Z
 ------------------------------------------------------------
 CL         17.0   1.3777800671   0.1083062557   0.6770649456
 C           6.0   2.8105025865  -0.0905923111  -0.3079505495
 C           6.0   3.0175018157   1.0998242473  -1.1972556391
 O           8.0   3.5064420848   1.0081806209  -2.3256823366
 H           1.0   2.6899121843  -1.0283927424  -0.9103610639
 H           1.0   3.6863532119  -0.1970757689   0.3838201124
 H           1.0   2.7187451488   2.0850109483  -0.7795105113
 O           8.0   4.4369219023  -1.6173052358  -3.9613784107
 H           1.0   4.3526334987  -0.7232424787  -3.6167423274
 H           1.0   4.1423784198  -1.5364609682  -4.8747823938
 O           8.0   3.3513684816   0.4168474860  -5.3319405780
 H           1.0   3.0822841860   1.0188642179  -6.0439431419
 H           1.0   3.2492764125   0.9413857288  -4.5239281060

          INTERNUCLEAR DISTANCES (ANGS.)
          ------------------------------

                1 CL         2 C          3 C          4 O          5 H     

   1 CL      0.0000000    1.7500029 *  2.6804613 *  3.7891248    2.3523811 *
   2 C       1.7500029 *  0.0000000    1.5002679 *  2.4005989 *  1.1211200 *
   3 C       2.6804613 *  1.5002679 *  0.0000000    1.2332104 *  2.1723101 *
   4 O       3.7891248    2.4005989 *  1.2332104 *  0.0000000    2.6110317 *
   5 H       2.3523811 *  1.1211200 *  2.1723101 *  2.6110317 *  0.0000000  
   6 H       2.3470749 *  1.1211600 *  2.1515372 *  2.9709282 *  1.8327268 *
   7 H       2.7977064 *  2.2280121 *  1.1110173 *  2.0422236 *  3.1162856  
   8 O       5.8181819    4.2806106    4.1277016    3.2302431    3.5647676  
   9 H       5.2894241    3.7049314    3.3105988    2.3196340 *  3.1909651  
  10 H       6.4164844    4.9719596    4.6625690    3.6575302    4.2525790  
  11 O       6.3323295    5.0784355    4.2039914    3.0677861    4.6985752  
  12 H       6.9933111    5.8486212    4.8477965    3.7423906    5.5406572  
  13 H       5.5898881    4.3625644    3.3384985    2.2142448 *  4.1534061  

                6 H          7 H          8 O          9 H         10 H     

   1 CL      2.3470749 *  2.7977064 *  5.8181819    5.2894241    6.4164844  
   2 C       1.1211600 *  2.2280121 *  4.2806106    3.7049314    4.9719596  
   3 C       2.1515372 *  1.1110173 *  4.1277016    3.3105988    4.6625690  
   4 O       2.9709282 *  2.0422236 *  3.2302431    2.3196340 *  3.6575302  
   5 H       1.8327268 *  3.1162856    3.5647676    3.1909651    4.2525790  
   6 H       0.0000000    2.7381606 *  4.6326186    4.0896553    5.4456232  
   7 H       2.7381606 *  0.0000000    5.1752835    4.3134398    5.6491630  
   8 O       4.6326186    5.1752835    0.0000000    0.9618871 *  0.9631191 *
   9 H       4.0896553    4.3134398    0.9618871 *  0.0000000    1.5126785 *
  10 H       5.4456232    5.6491630    0.9631191 *  1.5126785 *  0.0000000  
  11 O       5.7583884    4.8895400    2.6822834 *  2.2900310 *  2.1564100 *
  12 H       6.5695928    5.3835936    3.6223623    3.2465408    3.0034020  
  13 H       5.0569876    3.9509499    2.8764324 *  2.1934835 *  2.6571515 *

               11 O         12 H         13 H     

   1 CL      6.3323295    6.9933111    5.5898881  
   2 C       5.0784355    5.8486212    4.3625644  
   3 C       4.2039914    4.8477965    3.3384985  
   4 O       3.0677861    3.7423906    2.2142448 *
   5 H       4.6985752    5.5406572    4.1534061  
   6 H       5.7583884    6.5695928    5.0569876  
   7 H       4.8895400    5.3835936    3.9509499  
   8 O       2.6822834 *  3.6223623    2.8764324 *
   9 H       2.2900310 *  3.2465408    2.1934835 *
  10 H       2.1564100 *  3.0034020    2.6571515 *
  11 O       0.0000000    0.9704526 *  0.9687349 *
  12 H       0.9704526 *  0.0000000    1.5311221 *
  13 H       0.9687349 *  1.5311221 *  0.0000000  

  * ... LESS THAN  3.000


 MOPAC ONE- AND TWO-ELECTRON INTEGRALS REQUIRE      2933 WORDS.
 ...... END OF ONE- AND TWO-ELECTRON INTEGRALS......
 STEP CPU TIME =     0.00 TOTAL CPU TIME =          0.2 (      0.0 MIN)
 TOTAL WALL CLOCK TIME=          0.2 SECONDS, CPU UTILIZATION IS   100.00%
 ...... END OF ONE-ELECTRON INTEGRALS ......
 STEP CPU TIME =     0.00 TOTAL CPU TIME =          0.2 (      0.0 MIN)
 TOTAL WALL CLOCK TIME=          0.2 SECONDS, CPU UTILIZATION IS   100.00%

          --------------------------
               R-AM1 SCF CALCULATION
          --------------------------
     DENSITY MATRIX CONV=  1.00E-05

 ITER EX DEM     TOTAL ENERGY        E CHANGE  DENSITY CHANGE    DIIS ERROR
   1  0  0      -62.0704065395   -62.0704065395   0.018906597   0.000000000
   2  1  0      -62.0725582962    -0.0021517567   0.008695611   0.000000000
   3  2  0      -62.0729771730    -0.0004188768   0.003989763   0.000000000
   4  3  0      -62.0730703145    -0.0000931414   0.001845876   0.000000000
   5  0  0      -62.0730931335    -0.0000228191   0.002439400   0.000000000
   6  1  0      -62.0731017208    -0.0000085873   0.000102188   0.000000000
   7  2  0      -62.0731017346    -0.0000000138   0.000071483   0.000000000
   8  3  0      -62.0731017404    -0.0000000057   0.000051037   0.000000000
   9  4  0      -62.0731017432    -0.0000000028   0.000036820   0.000000000
  10  5  0      -62.0731017446    -0.0000000014   0.000026707   0.000000000
  11  6  0      -62.0731017453    -0.0000000008   0.000019428   0.000000000
  12  7  0      -62.0731017457    -0.0000000004   0.000014157   0.000000000

          ----------------
          ENERGY CONVERGED
          ----------------
     TIME TO FORM FOCK OPERATORS=       0.0 SECONDS (       0.0 SEC/ITER)
     TIME TO SOLVE SCF EQUATIONS=       0.0 SECONDS (       0.0 SEC/ITER)

 FINAL R-AM1 ENERGY IS      -62.0731017457 AFTER  12 ITERATIONS

 HEAT OF FORMATION IS      -174.50462 KCAL/MOL
 
 ...... END OF RHF CALCULATION ......
 STEP CPU TIME =     0.02 TOTAL CPU TIME =          0.3 (      0.0 MIN)
 TOTAL WALL CLOCK TIME=          0.3 SECONDS, CPU UTILIZATION IS   100.00%

          NSERCH= 20     ENERGY=     -62.0731017

                                 -----------------------
                                 GRADIENT (HARTREE/BOHR)
                                 -----------------------
        ATOM     ZNUC       DE/DX         DE/DY         DE/DZ
 --------------------------------------------------------------
    1  CL          17.0    -0.0018829     0.0005751     0.0009419
    2  C            6.0     0.0001444    -0.0001889     0.0017678
    3  C            6.0    -0.0021178     0.0001397     0.0027031
    4  O            8.0     0.0015478     0.0015802    -0.0026878
    5  H            1.0    -0.0000952    -0.0010280    -0.0014369
    6  H            1.0     0.0013379     0.0000553     0.0010439
    7  H            1.0     0.0010141    -0.0009346    -0.0015974
    8  O            8.0     0.0003439     0.0002572     0.0000519
    9  H            1.0     0.0000523    -0.0002769     0.0000776
   10  H            1.0    -0.0001593    -0.0001289    -0.0006285
   11  O            8.0     0.0025848    -0.0066623     0.0017584
   12  H            1.0    -0.0025036     0.0047616    -0.0071201
   13  H            1.0    -0.0002663     0.0018504     0.0051261

          MAXIMUM GRADIENT = 0.0071201    RMS GRADIENT = 0.0023017

 NSERCH:  20  E=      -62.0731017457  GRAD. MAX=  0.0071201  R.M.S.=  0.0023017

          HESSIAN UPDATED USING THE BFGS FORMULA
             ACTUAL ENERGY CHANGE WAS   0.0000342474
          PREDICTED ENERGY CHANGE WAS  -0.0001432998 RATIO= -0.239
          MIN SEARCH, CORRECT HESSIAN, TRYING PURE NR STEP
               NR STEP HAS LENGTH         =   1.175138
          TRIM/QA LAMBDA FOR NON-TS MODES =  -0.00291181
          TRIM/QA STEP HAS LENGTH         =   0.106066
          RADIUS OF STEP TAKEN=   0.10607  CURRENT TRUST RADIUS=   0.10607

      ***** FAILURE TO LOCATE STATIONARY POINT, TOO MANY STEPS TAKEN *****
     UPDATED HESSIAN, GEOMETRY, AND VECTORS WILL BE PUNCHED FOR RESTART
 **** THE GEOMETRY SEARCH IS NOT CONVERGED! ****

 THE NEXT PREDICTED SET OF COORDINATES FOLLOWS.  THEIR
 ENERGY AND GRADIENT IS UNKNOWN.  YOU MAY PREFER TO RESTART
 WITH SOME OTHER COORDINATES THAN THESE.

 YOU SHOULD RESTART "OPTIMIZE" RUNS WITH THE COORDINATES
 WHOSE ENERGY IS LOWEST.  RESTART "SADPOINT" RUNS WITH THE
 COORDINATES WHOSE RMS GRADIENT IS SMALLEST.  THESE ARE NOT
 ALWAYS THE LAST POINT COMPUTED!
 COORDINATES OF ALL ATOMS ARE (ANGS)
   ATOM   CHARGE       X              Y              Z
 ------------------------------------------------------------
 CL         17.0   1.3850940214   0.0937907794   0.6733138710
 C           6.0   2.8151455551  -0.0900912144  -0.3176710467
 C           6.0   3.0128589367   1.1053280037  -1.2028502538
 O           8.0   3.4923772562   1.0105729158  -2.3334157738
 H           1.0   2.7005291130  -1.0289304537  -0.9162057844
 H           1.0   3.6916305134  -0.1912609467   0.3724811051
 H           1.0   2.7115799749   2.0872027671  -0.7755310015
 O           8.0   4.4207807120  -1.6191533641  -3.9499082337
 H           1.0   4.3645380942  -0.7153994232  -3.6189330679
 H           1.0   4.1208882814  -1.5434054268  -4.8609666578
 O           8.0   3.3545389008   0.4165672900  -5.3300269149
 H           1.0   3.1002180620   1.0272984535  -6.0295085957
 H           1.0   3.2519205790   0.9328306196  -4.5233676460

          INTERNUCLEAR DISTANCES (ANGS.)
          ------------------------------

                1 CL         2 C          3 C          4 O          5 H     

   1 CL      0.0000000    1.7495460 *  2.6819430 *  3.7843831    2.3489243 *
   2 C       1.7495460 *  0.0000000    1.5005532 *  2.3944375 *  1.1192854 *
   3 C       2.6819430 *  1.5005532 *  0.0000000    1.2317040 *  2.1759536 *
   4 O       3.7843831    2.3944375 *  1.2317040 *  0.0000000    2.6067377 *
   5 H       2.3489243 *  1.1192854 *  2.1759536 *  2.6067377 *  0.0000000  
   6 H       2.3434729 *  1.1201657 *  2.1502425 *  2.9674879 *  1.8288483 *
   7 H       2.7986439 *  2.2273237 *  1.1124068 *  2.0483606 *  3.1193265  
   8 O       5.7899701    4.2554955    4.1172041    3.2234207    3.5370863  
   9 H       5.2872734    3.6999944    3.3135391    2.3221111 *  3.1893514  
  10 H       6.3869588    4.9455658    4.6503047    3.6477863    4.2241263  
  11 O       6.3263732    5.0666912    4.1981810    3.0580256    4.6903102  
  12 H       6.9814695    5.8270845    4.8280794    3.7168765    5.5257302  
  13 H       5.5852062    4.3502903    3.3335779    2.2044846 *  4.1429646  

                6 H          7 H          8 O          9 H         10 H     

   1 CL      2.3434729 *  2.7986439 *  5.7899701    5.2872734    6.3869588  
   2 C       1.1201657 *  2.2273237 *  4.2554955    3.6999944    4.9455658  
   3 C       2.1502425 *  1.1124068 *  4.1172041    3.3135391    4.6503047  
   4 O       2.9674879 *  2.0483606 *  3.2234207    2.3221111 *  3.6477863  
   5 H       1.8288483 *  3.1193265    3.5370863    3.1893514    4.2241263  
   6 H       0.0000000    2.7330986 *  4.6101612    4.0815332    5.4223180  
   7 H       2.7330986 *  0.0000000    5.1706009    4.3210861    5.6443113  
   8 O       4.6101612    5.1706009    0.0000000    0.9640949 *  0.9621334 *
   9 H       4.0815332    4.3210861    0.9640949 *  0.0000000    1.5124836 *
  10 H       5.4223180    5.6443113    0.9621334 *  1.5124836 *  0.0000000  
  11 O       5.7447092    4.8936543    2.6806264 *  2.2867639 *  2.1561081 *
  12 H       6.5437090    5.3738922    3.6155678    3.2320853    3.0026282  
  13 H       5.0424460    3.9586390    2.8649105 *  2.1846240 *  2.6459068 *

               11 O         12 H         13 H     

   1 CL      6.3263732    6.9814695    5.5852062  
   2 C       5.0666912    5.8270845    4.3502903  
   3 C       4.1981810    4.8280794    3.3335779  
   4 O       3.0580256    3.7168765    2.2044846 *
   5 H       4.6903102    5.5257302    4.1429646  
   6 H       5.7447092    6.5437090    5.0424460  
   7 H       4.8936543    5.3738922    3.9586390  
   8 O       2.6806264 *  3.6155678    2.8649105 *
   9 H       2.2867639 *  3.2320853    2.1846240 *
  10 H       2.1561081 *  3.0026282    2.6459068 *
  11 O       0.0000000    0.9627805 *  0.9632017 *
  12 H       0.9627805 *  0.0000000    1.5167064 *
  13 H       0.9632017 *  1.5167064 *  0.0000000  

  * ... LESS THAN  3.000


          NUCLEAR ENERGY    =      119.6037206943
          ELECTRONIC ENERGY =        0.0000000000
          TOTAL ENERGY      =        0.0000000000

          ------------------
          MOLECULAR ORBITALS
          ------------------

                      1          2          3          4          5
                   -1.4657    -1.3889    -1.3410    -1.2983    -1.1439
                     A          A          A          A          A   
    1  CL 1  S   -0.169311   0.931938   0.020669  -0.000201   0.283724
    2  CL 1  X   -0.042903   0.064602  -0.001113   0.000087  -0.178259
    3  CL 1  Y   -0.002129  -0.007088  -0.000436   0.000272   0.007185
    4  CL 1  Z    0.035836  -0.043748   0.001109  -0.000119   0.128922
    5  C  2  S   -0.223592   0.199517  -0.008073   0.000213  -0.634930
    6  C  2  X   -0.004036  -0.096484  -0.003296  -0.000013  -0.037624
    7  C  2  Y   -0.061861   0.011567  -0.003886   0.001722  -0.077036
    8  C  2  Z    0.055483   0.074050   0.004908  -0.000263   0.056498
    9  C  3  S   -0.494794  -0.037926  -0.027389   0.008669  -0.314790
   10  C  3  X   -0.091647  -0.048154  -0.005932   0.001063   0.083193
   11  C  3  Y    0.050975  -0.024220   0.001578   0.001777   0.138394
   12  C  3  Z    0.202375   0.103572   0.009387  -0.004342  -0.255192
   13  O  4  S   -0.726307  -0.213233  -0.023343   0.009724   0.378685
   14  O  4  X    0.096932   0.020103   0.005404  -0.005343   0.007897
   15  O  4  Y   -0.010748  -0.009962  -0.003695   0.007050   0.042975
   16  O  4  Z   -0.223503  -0.047194  -0.024439   0.005685  -0.038134
   17  H  5  S   -0.075778   0.055315  -0.001885  -0.002032  -0.221723
   18  H  6  S   -0.069056   0.059635  -0.002721  -0.000122  -0.236557
   19  H  7  S   -0.122732   0.002272  -0.007069   0.002864  -0.122231
   20  O  8  S   -0.021092  -0.010388   0.301578  -0.844693  -0.002780
   21  O  8  X    0.001485   0.000617  -0.018702   0.043396   0.000416
   22  O  8  Y   -0.005577  -0.002164   0.047796  -0.112312   0.000437
   23  O  8  Z    0.000286   0.000663  -0.026668   0.064696   0.000123
   24  H  9  S   -0.017652  -0.006156   0.116750  -0.270480   0.001920
   25  H 10  S   -0.007403  -0.003809   0.115589  -0.268640  -0.001088
   26  O 11  S   -0.025588  -0.020249   0.842532   0.312477  -0.013410
   27  O 11  X    0.001201   0.000956  -0.039387  -0.024705   0.000500
   28  O 11  Y   -0.004681  -0.003324   0.124495   0.064307  -0.000439
   29  O 11  Z   -0.003356  -0.001338   0.016370  -0.008752   0.003411
   30  H 12  S   -0.007921  -0.006393   0.270314   0.107576  -0.004883
   31  H 13  S   -0.018922  -0.009939   0.275316   0.090157   0.005396

                      6          7          8          9         10
                   -0.8499    -0.6751    -0.6579    -0.6355    -0.6179
                     A          A          A          A          A   
    1  CL 1  S   -0.071666   0.015707  -0.057842   0.004012   0.012178
    2  CL 1  X    0.160783  -0.061692   0.277674  -0.023323  -0.092628
    3  CL 1  Y   -0.103957  -0.042955   0.017374   0.080077   0.242291
    4  CL 1  Z   -0.073919   0.038686  -0.091704  -0.007184  -0.054694
    5  C  2  S    0.333976   0.010542   0.029760  -0.025514  -0.044641
    6  C  2  X   -0.012356   0.047667  -0.110793   0.001903  -0.022359
    7  C  2  Y   -0.240509  -0.078407   0.030957   0.136096   0.405718
    8  C  2  Z    0.123115  -0.063014   0.340246  -0.041818  -0.193511
    9  C  3  S   -0.519644  -0.029456  -0.028804   0.028595   0.046178
   10  C  3  X    0.044210   0.101410  -0.112526  -0.050022  -0.160514
   11  C  3  Y   -0.212591  -0.131788   0.453022  -0.042741  -0.269462
   12  C  3  Z   -0.035747  -0.130579   0.184755   0.148799   0.362045
   13  O  4  S    0.375530  -0.077033   0.182182   0.071809   0.207905
   14  O  4  X    0.130771  -0.027712   0.104946   0.084827   0.151603
   15  O  4  Y   -0.125220  -0.082874   0.395067  -0.102871  -0.334481
   16  O  4  Z   -0.275659   0.205773  -0.307547  -0.139352  -0.356551
   17  H  5  S    0.214265   0.063070  -0.112609  -0.069837  -0.184309
   18  H  6  S    0.188400   0.007733   0.100197  -0.039569  -0.152657
   19  H  7  S   -0.339567  -0.138488   0.304781   0.041173  -0.005545
   20  O  8  S   -0.016774   0.054018   0.024688   0.013847  -0.019344
   21  O  8  X   -0.000071   0.001764  -0.003748   0.103813  -0.045212
   22  O  8  Y    0.014015  -0.118762  -0.077376   0.357743  -0.128288
   23  O  8  Z    0.012530  -0.085534  -0.074379   0.586827  -0.241873
   24  H  9  S    0.023898  -0.122786  -0.080608   0.392873  -0.134262
   25  H 10  S   -0.010082   0.051483   0.046504  -0.414136   0.167525
   26  O 11  S   -0.015798   0.011043  -0.018356  -0.050802  -0.013385
   27  O 11  X    0.000920  -0.075571  -0.034920  -0.048390  -0.010197
   28  O 11  Y    0.004804   0.025418   0.032707   0.115349   0.003102
   29  O 11  Z    0.023675  -0.690385  -0.240291  -0.192726  -0.069577
   30  H 12  S   -0.012533   0.400185   0.150059   0.159532   0.042381
   31  H 13  S    0.028098  -0.412404  -0.118040  -0.065398  -0.022962

                     11         12         13         14         15
                   -0.6093    -0.5567    -0.5438    -0.5245    -0.5116
                     A          A          A          A          A   
    1  CL 1  S   -0.044785   0.017357   0.049888  -0.027179  -0.005432
    2  CL 1  X    0.063524  -0.114729  -0.522177   0.053975   0.053443
    3  CL 1  Y   -0.093911  -0.018696  -0.150040  -0.109219  -0.044935
    4  CL 1  Z   -0.377893   0.089641   0.061711  -0.394979  -0.016579
    5  C  2  S   -0.004271   0.012160   0.039751  -0.021050  -0.014953
    6  C  2  X   -0.498672   0.109803   0.168985  -0.337027  -0.040045
    7  C  2  Y   -0.116926  -0.061163  -0.314639   0.011260  -0.014816
    8  C  2  Z   -0.206070  -0.059817  -0.395100  -0.083915   0.036989
    9  C  3  S   -0.000818   0.011178   0.032898  -0.000564   0.010746
   10  C  3  X   -0.379684  -0.020493  -0.035195   0.375895   0.042176
   11  C  3  Y   -0.010228   0.009312   0.170052   0.021798   0.020400
   12  C  3  Z   -0.187268  -0.000551   0.197942   0.137824  -0.022527
   13  O  4  S   -0.013694  -0.009429   0.084549  -0.008068  -0.031502
   14  O  4  X   -0.408895  -0.047020   0.187001   0.598723   0.032780
   15  O  4  Y   -0.004615   0.036354   0.189743   0.053031  -0.035521
   16  O  4  Z   -0.149407  -0.046815  -0.237371   0.290690   0.060401
   17  H  5  S    0.183149   0.057407   0.367061   0.046652  -0.007590
   18  H  6  S   -0.359223   0.047594  -0.045807  -0.267697  -0.013085
   19  H  7  S    0.015203   0.014316   0.193423  -0.024413   0.009651
   20  O  8  S    0.009385   0.124034  -0.044060   0.041107  -0.318787
   21  O  8  X    0.005114   0.055591  -0.030579   0.026635  -0.241840
   22  O  8  Y   -0.003667  -0.239684   0.064658  -0.080742   0.609268
   23  O  8  Z    0.018372   0.022607  -0.043696   0.032786  -0.381961
   24  H  9  S   -0.000847  -0.159872   0.037058  -0.043972   0.297606
   25  H 10  S   -0.015186  -0.068328   0.043367  -0.034209   0.313212
   26  O 11  S   -0.021394  -0.311040   0.040977  -0.024676  -0.137943
   27  O 11  X   -0.016850  -0.239289   0.037457  -0.027054  -0.042937
   28  O 11  Y    0.037456   0.699977  -0.111579   0.082884   0.250167
   29  O 11  Z   -0.036478   0.104346  -0.048282   0.053072  -0.039227
   30  H 12  S    0.038198   0.279085  -0.025775   0.008935   0.158931
   31  H 13  S    0.000742   0.327118  -0.058364   0.044247   0.084558

                     16         17         18         19         20
                   -0.4617    -0.4609    -0.4347    -0.4261    -0.4133
                     A          A          A          A          A   
    1  CL 1  S   -0.004156   0.000665   0.000412   0.000176   0.004529
    2  CL 1  X    0.194992  -0.033959  -0.460121   0.016456   0.067018
    3  CL 1  Y   -0.758373   0.136724  -0.393816   0.007460  -0.341933
    4  CL 1  Z    0.313948  -0.056596  -0.597269   0.026972   0.216854
    5  C  2  S   -0.089158   0.015295  -0.002369   0.003240   0.087800
    6  C  2  X   -0.073486   0.012654   0.176471  -0.007009  -0.021028
    7  C  2  Y   -0.030044   0.003639   0.163644  -0.002646   0.334039
    8  C  2  Z    0.059285  -0.009360   0.231278  -0.015114  -0.199141
    9  C  3  S    0.109326  -0.019409  -0.002021   0.000283   0.020394
   10  C  3  X   -0.055677   0.010811  -0.014038   0.000179   0.012237
   11  C  3  Y    0.034634  -0.004298  -0.026084  -0.004197  -0.273264
   12  C  3  Z    0.114510  -0.020928  -0.019619   0.001790   0.049988
   13  O  4  S    0.022174  -0.004644  -0.002233   0.000389   0.005671
   14  O  4  X    0.055383  -0.008807  -0.131321   0.004006  -0.048773
   15  O  4  Y   -0.403271   0.069638  -0.014267   0.013398   0.660231
   16  O  4  Z   -0.054723   0.010892  -0.020650  -0.001060  -0.078806
   17  H  5  S   -0.045509   0.008921  -0.270665   0.008713  -0.129360
   18  H  6  S   -0.071591   0.012995   0.262978  -0.012850  -0.126260
   19  H  7  S    0.172754  -0.029172  -0.044130  -0.004554  -0.338377
   20  O  8  S    0.013013  -0.014291  -0.000891   0.000711  -0.006262
   21  O  8  X    0.009223  -0.028308   0.034216   0.937153  -0.026805
   22  O  8  Y   -0.048168   0.043463   0.015750   0.197550   0.041568
   23  O  8  Z    0.007444  -0.008249  -0.009749  -0.283930   0.007267
   24  H  9  S   -0.017619   0.017678   0.003046  -0.000389   0.010938
   25  H 10  S   -0.008183   0.011292  -0.000387  -0.000720   0.001864
   26  O 11  S    0.004527  -0.002671   0.000306   0.000886  -0.000494
   27  O 11  X   -0.164826  -0.928968  -0.000578  -0.015193  -0.000733
   28  O 11  Y   -0.067424  -0.309518  -0.002987  -0.003888  -0.005173
   29  O 11  Z    0.011884   0.084444  -0.002131   0.004563  -0.004974
   30  H 12  S   -0.004309   0.003607   0.000091  -0.002096   0.001338
   31  H 13  S   -0.003884   0.001059  -0.000727   0.000261  -0.000424

                     21         22         23         24         25
                   -0.0003     0.0364     0.0903     0.1177     0.1210
                     A          A          A          A          A   
    1  CL 1  S   -0.034438   0.076915  -0.009594   0.007051  -0.002793
    2  CL 1  X   -0.235548   0.484820  -0.043290   0.023185   0.031753
    3  CL 1  Y    0.015535  -0.060972   0.059099  -0.050408  -0.007755
    4  CL 1  Z    0.181511  -0.329395  -0.001400  -0.037723   0.039799
    5  C  2  S    0.107424  -0.317640  -0.261155  -0.039469  -0.169089
    6  C  2  X   -0.213608   0.477497  -0.114083   0.237030  -0.403916
    7  C  2  Y    0.037530  -0.145398  -0.352109   0.507741   0.135302
    8  C  2  Z    0.105764  -0.332320   0.348604   0.119318  -0.444480
    9  C  3  S   -0.019280   0.071667   0.540884  -0.006533   0.025158
   10  C  3  X   -0.663116  -0.287813  -0.073642  -0.134942   0.115525
   11  C  3  Y   -0.058778  -0.122268  -0.094408   0.442169   0.295603
   12  C  3  Z   -0.282664  -0.113550   0.231634  -0.060764  -0.008933
   13  O  4  S    0.006789  -0.017742  -0.028949   0.010535  -0.013862
   14  O  4  X    0.478349   0.216018   0.063065   0.038451  -0.033743
   15  O  4  Y    0.043901   0.065926   0.031392  -0.121374  -0.088241
   16  O  4  Z    0.231535  -0.006910  -0.167526   0.065870  -0.058418
   17  H  5  S   -0.097006  -0.008373   0.102499   0.536027  -0.027822
   18  H  6  S    0.147949   0.137288   0.044423  -0.156056   0.655882
   19  H  7  S   -0.005413   0.013559  -0.508358  -0.339436  -0.207449
   20  O  8  S    0.000866  -0.001475  -0.005122  -0.004477  -0.005698
   21  O  8  X   -0.001565   0.001106   0.004100   0.003289   0.004064
   22  O  8  Y    0.002344  -0.005400  -0.014591  -0.010611  -0.014710
   23  O  8  Z   -0.001666  -0.000770   0.002015  -0.000824   0.002726
   24  H  9  S   -0.000687   0.003747   0.012037   0.010835   0.013814
   25  H 10  S   -0.001609   0.001344   0.006580   0.005332   0.007962
   26  O 11  S    0.007102  -0.000146  -0.011391   0.004057  -0.009565
   27  O 11  X   -0.004976  -0.000129   0.006554  -0.002887   0.005518
   28  O 11  Y    0.019378   0.000207  -0.024183   0.010135  -0.018871
   29  O 11  Z    0.017568   0.000382  -0.015043   0.006730  -0.007164
   30  H 12  S   -0.006351   0.000402   0.014782  -0.004529   0.015711
   31  H 13  S   -0.019752  -0.000315   0.029113  -0.013204   0.021622

                     26         27         28         29         30
                    0.1414     0.1524     0.2015     0.2075     0.2304
                     A          A          A          A          A   
    1  CL 1  S    0.010961  -0.002550   0.004792  -0.000931   0.001192
    2  CL 1  X    0.020939  -0.011306   0.021806  -0.004362   0.005002
    3  CL 1  Y    0.015252  -0.002705  -0.003210   0.000120  -0.001731
    4  CL 1  Z   -0.004793   0.004199  -0.009144   0.001683  -0.001743
    5  C  2  S    0.401648  -0.014802  -0.031763   0.008689  -0.008534
    6  C  2  X    0.160878  -0.004887   0.020689  -0.001158   0.007785
    7  C  2  Y   -0.210723   0.063938  -0.112378   0.035983  -0.029112
    8  C  2  Z   -0.215512   0.042837  -0.055063   0.011216  -0.014469
    9  C  3  S    0.108570   0.010358  -0.208893   0.056143  -0.083326
   10  C  3  X   -0.026167   0.046606  -0.249767   0.057334  -0.090153
   11  C  3  Y    0.455176  -0.068978   0.078764  -0.007190   0.020676
   12  C  3  Z   -0.098312  -0.138497   0.571841  -0.152487   0.186966
   13  O  4  S   -0.026582  -0.052194   0.188250  -0.046563   0.052509
   14  O  4  X    0.051994   0.055562  -0.214913   0.070942  -0.066609
   15  O  4  Y   -0.139546   0.015668   0.025808  -0.028269   0.015685
   16  O  4  Z   -0.068189  -0.067838   0.500465  -0.124570   0.198397
   17  H  5  S   -0.509642   0.062581  -0.047216   0.021262  -0.012322
   18  H  6  S   -0.267867  -0.002909   0.020110  -0.004632   0.003935
   19  H  7  S   -0.348970   0.081299  -0.095707   0.015696  -0.021003
   20  O  8  S   -0.011623  -0.090421   0.059478   0.233654  -0.054125
   21  O  8  X    0.007709   0.074052  -0.031563  -0.156507   0.040385
   22  O  8  Y   -0.029377  -0.181396   0.135735   0.407749  -0.075791
   23  O  8  Z    0.008607   0.110272  -0.009097  -0.234221   0.078154
   24  H  9  S    0.029359   0.170934  -0.168996  -0.494540   0.086924
   25  H 10  S    0.017639   0.179757  -0.080039  -0.489161   0.138278
   26  O 11  S   -0.025488  -0.246923  -0.063679  -0.055651  -0.013045
   27  O 11  X    0.015584   0.159051   0.067459   0.049058  -0.062726
   28  O 11  Y   -0.050008  -0.483685  -0.148763  -0.173888   0.023296
   29  O 11  Z   -0.009144  -0.018317   0.167136  -0.167350  -0.582253
   30  H 12  S    0.048996   0.527415   0.285952   0.006550  -0.486671
   31  H 13  S    0.053174   0.476746   0.009354   0.310892   0.526601

     ----------------------------------------------------------------
     PROPERTY VALUES FOR THE RHF   SELF-CONSISTENT FIELD WAVEFUNCTION
     ----------------------------------------------------------------

                    -------------
                    MOPAC CHARGES
                    -------------
         ATOM NO.   TYPE          CHARGE        ATOM  ELECTRON DENSITY
           1         CL            -0.0853          7.0853
           2         C             -0.2031          4.2031
           3         C              0.1957          3.8043
           4         O             -0.3023          6.3023
           5         H              0.1492          0.8508
           6         H              0.1389          0.8611
           7         H              0.1103          0.8897
           8         O             -0.4110          6.4110
           9         H              0.2003          0.7997
          10         H              0.2073          0.7927
          11         O             -0.4122          6.4122
          12         H              0.1995          0.8005
          13         H              0.2129          0.7871

          ---------------------
          ELECTROSTATIC MOMENTS
          ---------------------

 POINT   1           X           Y           Z (ANGS)      CHARGE
                 0.000000    0.000000    0.000000       -0.00 (A.U.)
         DX          DY          DZ         /D/  (DEBYE)
    -1.073791    3.224112    1.047200    3.555918
 ...... END OF PROPERTY EVALUATION ......
 STEP CPU TIME =     0.01 TOTAL CPU TIME =          0.3 (      0.0 MIN)
 TOTAL WALL CLOCK TIME=          0.3 SECONDS, CPU UTILIZATION IS   100.00%
  $VIB   
          IVIB=   0 IATOM=   0 ICOORD=   0 E=      -62.0731017457
 -1.882908952E-03 5.751243238E-04 9.419039557E-04 1.443567956E-04-1.889068491E-04
  1.767762501E-03-2.117756664E-03 1.396544218E-04 2.703098129E-03 1.547799989E-03
  1.580169130E-03-2.687824708E-03-9.521093302E-05-1.027959799E-03-1.436901669E-03
  1.337896235E-03 5.525044376E-05 1.043876451E-03 1.014068437E-03-9.345740687E-04
 -1.597364846E-03 3.438519424E-04 2.572460143E-04 5.189806573E-05 5.229273679E-05
 -2.769420481E-04 7.762233604E-05-1.592818934E-04-1.288573153E-04-6.285389357E-04
  2.584841692E-03-6.662252756E-03 1.758417355E-03-2.503604164E-03 4.761599041E-03
 -7.120086800E-03-2.663452218E-04 1.850449461E-03 5.126138164E-03
 -1.073791102E+00 3.224111771E+00 1.047200055E+00
 ......END OF GEOMETRY SEARCH......
 STEP CPU TIME =     0.00 TOTAL CPU TIME =          0.3 (      0.0 MIN)
 TOTAL WALL CLOCK TIME=          0.3 SECONDS, CPU UTILIZATION IS   100.00%
                   580000  WORDS OF DYNAMIC MEMORY USED
 EXECUTION OF GAMESS TERMINATED NORMALLY 09:28:25 27-JUL-2026    
 DDI: 263640 bytes (0.3 MB / 0 MWords) used by master data server.

 ----------------------------------------
 CPU timing information for all processes
 ========================================
 0: 0.187500 + 0.109375 = 0.296875
 1: 0.031250 + 0.015625 = 0.046875
 ----------------------------------------
           Disk usage (in bytes)
 ========================================
 ----------------------------------------
            Local date and time
 ========================================
27/07/2026 -  9:28:27.91
