-------------------------------------------------------------------------

  .g8"""bgd       db      `7MMM.     ,MMF'`7MM"""YMM   .M"""bgd  .M"""bgd
.dP'     `M      ;MM:       MMMb    dPMM    MM    `7  ,MI    "Y ,MI    "Y
dM'       `     ,V^MML      M YM   ,M MM    MM   d    `MMb.     `MMb.
MM             ,M  `MM      M  Mb  M' MM    MMmmMM      `YMMNq.   `YMMNq.
MM.    `7MMF'  A     MA     M  YM.P'  MM    MM   Y  , .     `MM .     `MM
`Mb.     MM   A'     VML    M  `YM'   MM    MM     ,M Mb     dM Mb     dM
  `"bmmm!GO .YAN.   .KEES!.JML. `'  .JMML..JMMmmmmMMM P"Ybmmd"  P"Ybmmd"

-------------------------------------------------------------------------

                       GAMESS for Microsoft Windows
                    http://www.msg.ameslab.gov/gamess

GAMESS References:

"General Atomic and Molecular Electronic Structure System"
M.W.Schmidt, K.K.Baldridge, J.A.Boatz, S.T.Elbert, M.S.Gordon,
J.H.Jensen, S.Koseki, N.Matsunaga, K.A.Nguyen, S.Su, T.L.Windus, M.Dupuis,
J.A.Montgomery J. Comput. Chem., 14, 1347-1363(1993).

"Advances in electronic structure theory: GAMESS a decade later"
M.S.Gordon, M.W.Schmidt pp. 1167-1189, in
"Theory and Applications of Computational Chemistry: the first forty years"
C.E.Dykstra, G.Frenking, K.S.Kim, G.E.Scuseria (editors),
Elsevier, Amsterdam, 2005.
=========================================================================

Contents of rungms.gms file:

GAMESSDIR=C:\Users\Public\gamess-64
AUXDATADIR=C:\Users\Public\gamess-64\auxdata
RESTARTDIR=C:\Users\Public\gamess-64\restart
SCRATCHDIR=C:\Users\Public\gamess-64\scratch

=========================================================================

Job Properties

Input Filename               : caa001b.inp
GAMESS Version               : gamess.2020.R2.pgiblas.exe
Compute Processes Requested  : 1
Nodes Required               : 1

=========================================================================

------------------------ GAMESS EXECUTION SCRIPT ------------------------
This job is running on host NHPC-CSUITE-D05 under operating system
Microsoft Windows [Version 10.0.26100.8655] at 27/07/2026 -  9:51:16.15
Available scratch disk at beginning of the job is 46,242,160,640 bytes

EXTBAS=/dev/null
NUCBAS=/dev/null
EXTCAB=/dev/null
POSBAS=/dev/null
DFTBPAR=C:\Users\Public\gamess-64\auxdata\DFTB
ERICFMT=C:\Users\Public\gamess-64\auxdata\ericfmt.dat
MCPPATH=C:\Users\Public\gamess-64\auxdata\MCP
BASPATH=C:\Users\Public\gamess-64\auxdata\BASES
QUANPOL=C:\Users\Public\gamess-64\auxdata\QUANPOL
MAKEFP=C:\Users\Public\gamess-64\restart\caa001b.efp
GAMMA=C:\Users\Public\gamess-64\restart\caa001b.gamma
TRAJECT=C:\Users\Public\gamess-64\restart\caa001b.trj
RESTART=C:\Users\Public\gamess-64\restart\caa001b.rst
QMWAVE=C:\Users\Public\gamess-64\restart\caa001b.qmw
MDDIP=C:\Users\Public\gamess-64\restart\caa001b.dip
OPTHES1=C:\Users\Public\gamess-64\restart\caa001b.hs1
OPTHES2=C:\Users\Public\gamess-64\restart\caa001b.hs2
XYZ=C:\Users\Public\gamess-64\scratch\caa001b.xyz
INPUT=C:\Users\Public\gamess-64\scratch\caa001b.F05
PUNCH=C:\Users\Public\gamess-64\restart\caa001b.dat
AOINTS=C:\Users\Public\gamess-64\scratch\caa001b.F08
MOINTS=C:\Users\Public\gamess-64\scratch\caa001b.F09
DICTNRY=C:\Users\Public\gamess-64\scratch\caa001b.F10
DRTFILE=C:\Users\Public\gamess-64\scratch\caa001b.F11
CIVECTR=C:\Users\Public\gamess-64\scratch\caa001b.F12
CASINTS=C:\Users\Public\gamess-64\scratch\caa001b.F13
CIINTS=C:\Users\Public\gamess-64\scratch\caa001b.F14
WORK15=C:\Users\Public\gamess-64\scratch\caa001b.F15
WORK16=C:\Users\Public\gamess-64\scratch\caa001b.F16
CSFSAVE=C:\Users\Public\gamess-64\scratch\caa001b.F17
FOCKDER=C:\Users\Public\gamess-64\scratch\caa001b.F18
WORK19=C:\Users\Public\gamess-64\scratch\caa001b.F19
DASORT=C:\Users\Public\gamess-64\scratch\caa001b.F20
DIABDAT=C:\Users\Public\gamess-64\scratch\caa001b.F21
DFTINTS=C:\Users\Public\gamess-64\scratch\caa001b.F21
DFTGRID=C:\Users\Public\gamess-64\scratch\caa001b.F22
JKFILE=C:\Users\Public\gamess-64\scratch\caa001b.F23
ORDINT=C:\Users\Public\gamess-64\scratch\caa001b.F24
EFPIND=C:\Users\Public\gamess-64\scratch\caa001b.F25
PCMDATA=C:\Users\Public\gamess-64\scratch\caa001b.F26
PCMINTS=C:\Users\Public\gamess-64\scratch\caa001b.F27
SVPWRK1=C:\Users\Public\gamess-64\scratch\caa001b.F26
SVPWRK2=C:\Users\Public\gamess-64\scratch\caa001b.F27
COSCAV=C:\Users\Public\gamess-64\scratch\caa001b.F26
COSDATA=C:\Users\Public\gamess-64\restart\caa001b.cosmo
COSPOT=C:\Users\Public\gamess-64\restart\caa001b.pot
MLTPL=C:\Users\Public\gamess-64\scratch\caa001b.F28
MLTPLT=C:\Users\Public\gamess-64\scratch\caa001b.F29
DAFL30=C:\Users\Public\gamess-64\scratch\caa001b.F30
SOINTX=C:\Users\Public\gamess-64\scratch\caa001b.F31
SOINTY=C:\Users\Public\gamess-64\scratch\caa001b.F32
SOINTZ=C:\Users\Public\gamess-64\scratch\caa001b.F33
SORESC=C:\Users\Public\gamess-64\scratch\caa001b.F34
GCILIST=C:\Users\Public\gamess-64\scratch\caa001b.F37
HESSIAN=C:\Users\Public\gamess-64\scratch\caa001b.F38
QMMMTEI=C:\Users\Public\gamess-64\scratch\caa001b.F39
SOCCDAT=C:\Users\Public\gamess-64\scratch\caa001b.F40
AABB41=C:\Users\Public\gamess-64\scratch\caa001b.F41
BBAA42=C:\Users\Public\gamess-64\scratch\caa001b.F42
BBBB43=C:\Users\Public\gamess-64\scratch\caa001b.F43
REMD=C:\Users\Public\gamess-64\scratch\caa001b.F44
UNV=C:\Users\Public\gamess-64\scratch\caa001b.F45
UNPV=C:\Users\Public\gamess-64\scratch\caa001b.F46
MCQD50=C:\Users\Public\gamess-64\scratch\caa001b.F50
MCQD51=C:\Users\Public\gamess-64\scratch\caa001b.F51
MCQD52=C:\Users\Public\gamess-64\scratch\caa001b.F52
MCQD53=C:\Users\Public\gamess-64\scratch\caa001b.F53
MCQD54=C:\Users\Public\gamess-64\scratch\caa001b.F54
MCQD55=C:\Users\Public\gamess-64\scratch\caa001b.F55
MCQD56=C:\Users\Public\gamess-64\scratch\caa001b.F56
MCQD57=C:\Users\Public\gamess-64\scratch\caa001b.F57
MCQD58=C:\Users\Public\gamess-64\scratch\caa001b.F58
MCQD59=C:\Users\Public\gamess-64\scratch\caa001b.F59
MCQD60=C:\Users\Public\gamess-64\scratch\caa001b.F60
MCQD61=C:\Users\Public\gamess-64\scratch\caa001b.F61
MCQD62=C:\Users\Public\gamess-64\scratch\caa001b.F62
MCQD63=C:\Users\Public\gamess-64\scratch\caa001b.F63
MCQD64=C:\Users\Public\gamess-64\scratch\caa001b.F64
NMRINT1=C:\Users\Public\gamess-64\scratch\caa001b.F61
NMRINT2=C:\Users\Public\gamess-64\scratch\caa001b.F62
NMRINT3=C:\Users\Public\gamess-64\scratch\caa001b.F63
NMRINT4=C:\Users\Public\gamess-64\scratch\caa001b.F64
NMRINT5=C:\Users\Public\gamess-64\scratch\caa001b.F65
NMRINT6=C:\Users\Public\gamess-64\scratch\caa001b.F66
DCPHFH2=C:\Users\Public\gamess-64\scratch\caa001b.F67
DCPHF21=C:\Users\Public\gamess-64\scratch\caa001b.F68
ELNUINT=C:\Users\Public\gamess-64\scratch\caa001b.F67
NUNUINT=C:\Users\Public\gamess-64\scratch\caa001b.F68
GVVPT=C:\Users\Public\gamess-64\scratch\caa001b.F69
NUMOCAS=C:\Users\Public\gamess-64\scratch\caa001b.F70
NUELCAS=C:\Users\Public\gamess-64\scratch\caa001b.F72
RIVMAT=C:\Users\Public\gamess-64\scratch\caa001b.F51
RIT2A=C:\Users\Public\gamess-64\scratch\caa001b.F52
RIT3A=C:\Users\Public\gamess-64\scratch\caa001b.F53
RIT2B=C:\Users\Public\gamess-64\scratch\caa001b.F54
RIT3B=C:\Users\Public\gamess-64\scratch\caa001b.F55
DEN2P1=C:\Users\Public\gamess-64\scratch\caa001b.F70
DEN2P2=C:\Users\Public\gamess-64\scratch\caa001b.F71
DEN2P3=C:\Users\Public\gamess-64\scratch\caa001b.F72
DEN2P4=C:\Users\Public\gamess-64\scratch\caa001b.F73
DEN2NM=C:\Users\Public\gamess-64\scratch\caa001b.F74
DEN2OPT=C:\Users\Public\gamess-64\scratch\caa001b.F75
GMCREF=C:\Users\Public\gamess-64\scratch\caa001b.F70
GMCO2R=C:\Users\Public\gamess-64\scratch\caa001b.F71
GMCROC=C:\Users\Public\gamess-64\scratch\caa001b.F72
GMCOOC=C:\Users\Public\gamess-64\scratch\caa001b.F73
GMCCC0=C:\Users\Public\gamess-64\scratch\caa001b.F74
GMCHMA=C:\Users\Public\gamess-64\scratch\caa001b.F75
GMCEI1=C:\Users\Public\gamess-64\scratch\caa001b.F76
GMCEI2=C:\Users\Public\gamess-64\scratch\caa001b.F77
GMCEOB=C:\Users\Public\gamess-64\scratch\caa001b.F78
GMCEDT=C:\Users\Public\gamess-64\scratch\caa001b.F79
GMCERF=C:\Users\Public\gamess-64\scratch\caa001b.F80
GMCHCR=C:\Users\Public\gamess-64\scratch\caa001b.F81
GMCGJK=C:\Users\Public\gamess-64\scratch\caa001b.F82
GMCGAI=C:\Users\Public\gamess-64\scratch\caa001b.F83
GMCGEO=C:\Users\Public\gamess-64\scratch\caa001b.F84
GMCTE1=C:\Users\Public\gamess-64\scratch\caa001b.F85
GMCTE2=C:\Users\Public\gamess-64\scratch\caa001b.F86
GMCHEF=C:\Users\Public\gamess-64\scratch\caa001b.F87
GMCMOL=C:\Users\Public\gamess-64\scratch\caa001b.F88
GMCMOS=C:\Users\Public\gamess-64\scratch\caa001b.F89
GMCWGT=C:\Users\Public\gamess-64\scratch\caa001b.F90
GMCRM2=C:\Users\Public\gamess-64\scratch\caa001b.F91
GMCRM1=C:\Users\Public\gamess-64\scratch\caa001b.F92
GMCR00=C:\Users\Public\gamess-64\scratch\caa001b.F93
GMCRP1=C:\Users\Public\gamess-64\scratch\caa001b.F94
GMCRP2=C:\Users\Public\gamess-64\scratch\caa001b.F95
GMCVEF=C:\Users\Public\gamess-64\scratch\caa001b.F96
GMCDIN=C:\Users\Public\gamess-64\scratch\caa001b.F97
GMC2SZ=C:\Users\Public\gamess-64\scratch\caa001b.F98
GMCCCS=C:\Users\Public\gamess-64\scratch\caa001b.F99
CCREST=C:\Users\Public\gamess-64\scratch\caa001b.F70
CCDIIS=C:\Users\Public\gamess-64\scratch\caa001b.F71
CCINTS=C:\Users\Public\gamess-64\scratch\caa001b.F72
CCT1AMP=C:\Users\Public\gamess-64\scratch\caa001b.F73
CCT2AMP=C:\Users\Public\gamess-64\scratch\caa001b.F74
CCT3AMP=C:\Users\Public\gamess-64\scratch\caa001b.F75
CCVM=C:\Users\Public\gamess-64\scratch\caa001b.F76
CCVE=C:\Users\Public\gamess-64\scratch\caa001b.F77
CCQUADS=C:\Users\Public\gamess-64\scratch\caa001b.F78
QUADSVO=C:\Users\Public\gamess-64\scratch\caa001b.F79
EOMSTAR=C:\Users\Public\gamess-64\scratch\caa001b.F80
EOMVEC1=C:\Users\Public\gamess-64\scratch\caa001b.F81
EOMVEC2=C:\Users\Public\gamess-64\scratch\caa001b.F82
EOMHC1=C:\Users\Public\gamess-64\scratch\caa001b.F83
EOMHC2=C:\Users\Public\gamess-64\scratch\caa001b.F84
EOMHHHH=C:\Users\Public\gamess-64\scratch\caa001b.F85
EOMPPPP=C:\Users\Public\gamess-64\scratch\caa001b.F86
EOMRAMP=C:\Users\Public\gamess-64\scratch\caa001b.F87
EOMRTMP=C:\Users\Public\gamess-64\scratch\caa001b.F88
EOMDG12=C:\Users\Public\gamess-64\scratch\caa001b.F89
MMPP=C:\Users\Public\gamess-64\scratch\caa001b.F90
MMHPP=C:\Users\Public\gamess-64\scratch\caa001b.F91
MMCIVEC=C:\Users\Public\gamess-64\scratch\caa001b.F92
MMCIVC1=C:\Users\Public\gamess-64\scratch\caa001b.F93
MMCIITR=C:\Users\Public\gamess-64\scratch\caa001b.F94
EOMVL1=C:\Users\Public\gamess-64\scratch\caa001b.F95
EOMVL2=C:\Users\Public\gamess-64\scratch\caa001b.F96
EOMLVEC=C:\Users\Public\gamess-64\scratch\caa001b.F97
EOMHL1=C:\Users\Public\gamess-64\scratch\caa001b.F98
EOMHL2=C:\Users\Public\gamess-64\scratch\caa001b.F99
CCVVVV=C:\Users\Public\gamess-64\scratch\caa001b.F80
AMPROCC=C:\Users\Public\gamess-64\scratch\caa001b.F70
ITOPNCC=C:\Users\Public\gamess-64\scratch\caa001b.F71
FOCKMTX=C:\Users\Public\gamess-64\scratch\caa001b.F72
LAMB23=C:\Users\Public\gamess-64\scratch\caa001b.F73
VHHAA=C:\Users\Public\gamess-64\scratch\caa001b.F74
VHHBB=C:\Users\Public\gamess-64\scratch\caa001b.F75
VHHAB=C:\Users\Public\gamess-64\scratch\caa001b.F76
VMAA=C:\Users\Public\gamess-64\scratch\caa001b.F77
VMBB=C:\Users\Public\gamess-64\scratch\caa001b.F78
VMAB=C:\Users\Public\gamess-64\scratch\caa001b.F79
VMBA=C:\Users\Public\gamess-64\scratch\caa001b.F80
VHPRAA=C:\Users\Public\gamess-64\scratch\caa001b.F81
VHPRBB=C:\Users\Public\gamess-64\scratch\caa001b.F82
VHPRAB=C:\Users\Public\gamess-64\scratch\caa001b.F83
VHPLAA=C:\Users\Public\gamess-64\scratch\caa001b.F84
VHPLBB=C:\Users\Public\gamess-64\scratch\caa001b.F85
VHPLAB=C:\Users\Public\gamess-64\scratch\caa001b.F86
VHPLBA=C:\Users\Public\gamess-64\scratch\caa001b.F87
VEAA=C:\Users\Public\gamess-64\scratch\caa001b.F88
VEBB=C:\Users\Public\gamess-64\scratch\caa001b.F89
VEAB=C:\Users\Public\gamess-64\scratch\caa001b.F90
VEBA=C:\Users\Public\gamess-64\scratch\caa001b.F91
VPPPP=C:\Users\Public\gamess-64\scratch\caa001b.F92
INTERM1=C:\Users\Public\gamess-64\scratch\caa001b.F93
INTERM2=C:\Users\Public\gamess-64\scratch\caa001b.F94
INTERM3=C:\Users\Public\gamess-64\scratch\caa001b.F95
ITSPACE=C:\Users\Public\gamess-64\scratch\caa001b.F96
INSTART=C:\Users\Public\gamess-64\scratch\caa001b.F97
ITSPC3=C:\Users\Public\gamess-64\scratch\caa001b.F98
AOINTS=C:\Users\Public\gamess-64\scratch\caa001b.F08
OLI201=C:\Users\Public\gamess-64\scratch\caa001b.F201
OLI202=C:\Users\Public\gamess-64\scratch\caa001b.F202
OLI203=C:\Users\Public\gamess-64\scratch\caa001b.F203
OLI204=C:\Users\Public\gamess-64\scratch\caa001b.F204
OLI205=C:\Users\Public\gamess-64\scratch\caa001b.F205
OLI206=C:\Users\Public\gamess-64\scratch\caa001b.F206
OLI207=C:\Users\Public\gamess-64\scratch\caa001b.F207
OLI208=C:\Users\Public\gamess-64\scratch\caa001b.F208
OLI209=C:\Users\Public\gamess-64\scratch\caa001b.F209
OLI210=C:\Users\Public\gamess-64\scratch\caa001b.F210
OLI211=C:\Users\Public\gamess-64\scratch\caa001b.F211
OLI212=C:\Users\Public\gamess-64\scratch\caa001b.F212
OLI213=C:\Users\Public\gamess-64\scratch\caa001b.F213
OLI214=C:\Users\Public\gamess-64\scratch\caa001b.F214
OLI215=C:\Users\Public\gamess-64\scratch\caa001b.F215
OLI216=C:\Users\Public\gamess-64\scratch\caa001b.F216
OLI217=C:\Users\Public\gamess-64\scratch\caa001b.F217
OLI218=C:\Users\Public\gamess-64\scratch\caa001b.F218
OLI219=C:\Users\Public\gamess-64\scratch\caa001b.F219
OLI220=C:\Users\Public\gamess-64\scratch\caa001b.F220
OLI221=C:\Users\Public\gamess-64\scratch\caa001b.F221
OLI222=C:\Users\Public\gamess-64\scratch\caa001b.F222
OLI223=C:\Users\Public\gamess-64\scratch\caa001b.F223
OLI224=C:\Users\Public\gamess-64\scratch\caa001b.F224
OLI225=C:\Users\Public\gamess-64\scratch\caa001b.F225
OLI226=C:\Users\Public\gamess-64\scratch\caa001b.F226
OLI227=C:\Users\Public\gamess-64\scratch\caa001b.F227
OLI228=C:\Users\Public\gamess-64\scratch\caa001b.F228
OLI229=C:\Users\Public\gamess-64\scratch\caa001b.F229
OLI230=C:\Users\Public\gamess-64\scratch\caa001b.F230
OLI231=C:\Users\Public\gamess-64\scratch\caa001b.F231
OLI232=C:\Users\Public\gamess-64\scratch\caa001b.F232
OLI233=C:\Users\Public\gamess-64\scratch\caa001b.F233
OLI234=C:\Users\Public\gamess-64\scratch\caa001b.F234
OLI235=C:\Users\Public\gamess-64\scratch\caa001b.F235
OLI236=C:\Users\Public\gamess-64\scratch\caa001b.F236
OLI237=C:\Users\Public\gamess-64\scratch\caa001b.F237
OLI238=C:\Users\Public\gamess-64\scratch\caa001b.F238
OLI239=C:\Users\Public\gamess-64\scratch\caa001b.F239
DCSUB=C:\Users\Public\gamess-64\scratch\caa001b.F250
DCVEC=C:\Users\Public\gamess-64\scratch\caa001b.F251
DCEIG=C:\Users\Public\gamess-64\scratch\caa001b.F252
DCDM=C:\Users\Public\gamess-64\scratch\caa001b.F253
DCDMO=C:\Users\Public\gamess-64\scratch\caa001b.F254
DCQ=C:\Users\Public\gamess-64\scratch\caa001b.F255
DCW=C:\Users\Public\gamess-64\scratch\caa001b.F256
DCEDM=C:\Users\Public\gamess-64\scratch\caa001b.F257
LHYPWRK=C:\Users\Public\gamess-64\scratch\caa001b.F297
LHYPWK2=C:\Users\Public\gamess-64\scratch\caa001b.F298
BONDDPF=C:\Users\Public\gamess-64\scratch\caa001b.F299
VB2000PATH=C:\Users\Public\gamess-64\vb2000
GMSJOBNAME=caa001b
CIMFILE=C:\Users\Public\gamess-64\restart\caa001b.cim
CIMDMN=C:\Users\Public\gamess-64\restart\caa001b.dmn
CIMDCT=C:\Users\Public\gamess-64\scratch\caa001b.Fcdt
CIMAOI=C:\Users\Public\gamess-64\scratch\caa001b.Fcao
CIMMOI=C:\Users\Public\gamess-64\scratch\caa001b.Fcmo
CASINO=C:\Users\Public\gamess-64\restart\caa001b.casino

=========================================================================

Searching for restart files from a previous caa001b run.

None found.

=========================================================================
Microsoft MPI (MS-MPI) will be running GAMESS on 1 node(s).
The binary will be kicked off by 'mpiexec' is gamess.2020.R2.pgiblas.exe
MS-MPI will run 1 compute process(es) and 1 data server(s).

          *******************************************************
          *                                                     *
          *          GAMESS VERSION = 30 SEP 2020 (R2)          *
          *                                                     *
          *              doi.org/10.1063/5.0005188              *
          *                                                     *
          *************** 64 BIT WINDOWS VERSION ****************

  GAMESS HAS BEEN MADE POSSIBLE WITH IMPORTANT CONTRIBUTIONS FROM
  THE FOLLOWING INDIVIDUALS (IN ALPHABETICAL ORDER):

     IVANA ADAMOVIC, CHRISTINE AIKENS, TOMOKO AKAMA,
     YURI ALEXEEV, YURIKO AOKI, POOJA ARORA, TOSHIO ASADA,
     ANDREY ASADCHEV, KIM K. BALDRIDGE, PRADIPTA BANDYOPADHYAY,
     MARIA BARYSZ, ROB BELL, JONATHAN BENTZ, COLLEEN BERTONI,
     JERRY A. BOATZ, BRETT BODE, KURT BRORSEN, KURT R. BRORSEN,
     LAIMUTIS BYTAUTAS, CALEB CARLIN, LAURA CARRINGTON,
     GALINA CHABAN, BENOIT CHAMPAGNE, WEI CHEN, MAHITO CHIBA,
     DAN CHIPMAN, CHEOL HO CHOI, TANNER CULPITT,
     DIPAYAN DATTA, PAUL DAY, ALBERT DEFUSCO,
     NUWAN DESILVA, J. EMILIANO DEUSTUA,
     TIM DUDLEY, MICHEL DUPUIS, STEVEN T. ELBERT,
     DMITRI FEDOROV, ALEX FINDLATER, GRAHAM FLETCHER,
     MARK FREITAG, CHRISTIAN FRIEDL, DAVID GARMER,
     IGOR S. GERASIMOV, KURT GLAESEMANN, MARK S. GORDON,
     JEFFREY GOUR, FENG LONG GU, EMILIE B. GUIDEZ,
     ANASTASIA GUNINA, SHARON HAMMES-SCHIFFER, MASATAKE HARUTA,
     KIMIHIKO HIRAO, YASUHIRO IKABATA, TZVETELIN IORDANOV,
     STEPHAN IRLE, KAZUYA ISHIMURA, JOE IVANIC, FRANK JENSEN,
     JAN H. JENSEN, VISVALDAS KAIRYS, MUNEAKI KAMIYA,
     MICHIO KATOUDA, NAOAKI KAWAKAMI, DAN KEMP, BERNARD KIRTMAN,
     KAZUO KITAURA, MARIUSZ KLOBUKOWSKI, MASATO KOBAYASHI,
     PRAKASHAN KORAMBATH, JACEK KORCHOWIEC, SHIRO KOSEKI,
     KAROL KOWALSKI, JIMMY KROMANN, STANISLAW KUCHARSKI,
     HENRY KURTZ, SAROM SOK LEANG, HUI LI, SHUHUA LI, WEI LI,
     JESSE LUTZ, ALEKSANDR O. LYKHIN, MARCIN MAKOWSKI,
     JOANI MATO, NIKITA MATSUNAGA, BENEDETTA MENNUCCI,
     GRANT MERRILL, NORIYUKI MINEZAWA, VLADIMIR MIRONOV,
     EISAKU MIYOSHI, JOHN A. MONTGOMERY JR., HIROTOSHI MORI,
     JONATHAN MULLIN, MONIKA MUSIAL, SHIGERU NAGASE,
     TAKESHI NAGATA, HIROMI NAKAI, TAKAHITO NAKAJIMA,
     YUYA NAKAJIMA, HARUYUKI NAKANO, HIROYA NAKATA, SEAN NEDD,
     HEATHER NETZLOFF, KIET A. NGUYEN, YOSHIO NISHIMOTO,
     BOSILJKA NJEGIC, RYAN OLSON, MIKE PAK, ROBERTO PEVERATI,
     BUU PHAM, PIOTR PIECUCH, ANNA POMOGAEVA, DAVID POOLE,
     SPENCER PRUITT, OLIVIER QUINET, LUKE ROSKOP,
     KLAUS RUEDENBERG, ANDREW SAND, TOSAPORN SATTASATHUCHANA,
     NOZOMI SAWADA, MICHAEL W. SCHMIDT, PATRICK E. SCHNEIDER,
     JUNJI SEINO, PRACHI SHARMA, JUN SHEN, JIM SHOEMAKER,
     YINAN SHU, DEJUN SI, JONATHAN SKONE, LYUDMILA SLIPCHENKO,
     TONY SMITH, JIE SONG, MARK SPACKMAN, CASPER STEINMANN,
     WALT STEVENS, PEIFENG SU, SHUJUN SU, CHET SWALINA,
     TETSUYA TAKETSUGU, ZHEN TAO, NANDUN THELLAMUREGE
     SEIKEN TOKURA, JACOPO TOMASI, TSUGUKI TOUMA, TAKAO TSUNEDA,
     HIROAKI UMEDA, JORGE LUIS GALVEZ VALLEJO, YALI WANG,
     SIMON WEBB, AARON WEST, THERESA L. WINDUS, MARTA WLOCH,
     PENG XU, KIYOSHI YAGI, SUSUMU YANAGISAWA, YANG YANG,
     SOOHAENG YOO, TAKESHI YOSHIKAWA, FEDERICO ZAHARIEV,
     TOBY ZENG

  WHO ARE SUPPORTED BY THEIR INSTITUTION/UNIVERSITY/COMPANY/GROUP
  (IN ALPHABETICAL ORDER):

     EP ANALYTICS, FACULTES UNIVERSITAIRES NOTRE-DAME DE LA PAIX,
     INSTITUTE FOR MOLECULAR SCIENCE, IOWA STATE UNIVERSITY,
     JACKSON STATE UNIVERSITY, JOHANNES KEPLER UNIVERSITY LINZ,
     KYUSHU UNIVERSITY, MICHIGAN STATE UNIVERSITY,
     MIE UNIVERSITY, MOSCOW STATE UNIVERSITY,
     N. COPERNICUS UNIVERSITY, NAGOYA UNIVERSITY,
     NANJING UNIVERSITY, NAT. INST. OF ADVANCED INDUSTRIAL
     SCIENCE AND TECHNOLOGY, NATIONAL INST. OF STANDARDS AND
     TECHNOLOGY, NESMEYANOV INSTITUTE OF ORGANOELEMENT COMPOUNDS
     OF RUSSIAN ACADEMY OF SCIENCES, OSAKA PREFECTURE UNIVERSITY,
     PENNSYLVANIA STATE UNIVERSITY, TOKYO INSTITUTE OF TECHNOLOGY,
     UNIVERSITY OF AARHUS, UNIVERSITY OF ALBERTA,
     UNIVERSITY OF CALIFORNIA AT SANTA BARBARA,
     UNIVERSITY OF COPENHAGEN, UNIVERSITY OF IOWA,
     UNIVERSITY OF MEMPHIS, UNIVERSITY OF MINNESOTA,
     UNIVERSITY OF NEBRASKA, UNIVERSITY OF NEW ENGLAND,
     UNIVERSITY OF NOTRE DAME, UNIVERSITY OF PISA,
     UNIVERSITY OF SILESIA, UNIVERSITY OF TOKYO,
     UNIVERSITY OF ZURICH, WASEDA UNIVERSITY, YALE UNIVERSITY

  GAMESS SOFTWARE MANAGEMENT TEAM FOR THIS RELEASE:
     MARK S. GORDON (TEAM LEAD),
     BRETT BODE (SENIOR ADVISOR),
     GIUSEPPE BARCA,
     COLLEEN BERTONI,
     KRISTOPHER KEIPERT (ADVISOR),
     SAROM S. LEANG (DEVELOPMENT LEAD),
     BUU PHAM,
     JORGE LUIS GALVEZ VALLEJO (WEBSITE ADMINISTRATOR),
     PENG XU

 EXECUTION OF GAMESS BEGUN 09:51:23 27-JUL-2026    

            ECHO OF THE FIRST FEW INPUT CARDS -
 INPUT CARD>! C2H7O3Cl | Equilibrium Geometry | AM1                                         
 INPUT CARD>! Constraints applied to start nucleophilic attack at carbonyl                  
 INPUT CARD> $BASIS GBASIS=AM1 $END                                                         
 INPUT CARD> $CONTRL SCFTYP=RHF RUNTYP=OPTIMIZE ICHARG=0 MULT=1 $END                        
 INPUT CARD> $STATPT OPTTOL=0.0005 NSTEP=200 IHREP=20 HSSEND=.t. $END                       
 INPUT CARD> $ZMAT DLC=.t. AUTO=.t. NONVDW(1)=4,13, 13,11, 11,10, 10,8, 8,3 $END            
 INPUT CARD> $ZMAT IFZMAT(1)=1,4,13, 1,11,10, 1,8,3 FVALUE(1)=2.0, 2.0, 3.0 $END            
 INPUT CARD> $PCM SOLVNT=WATER $END                                                         
 INPUT CARD> $SYSTEM MWORDS=25 MEMDDI=24 $END                                               
 INPUT CARD>                                                                                
 INPUT CARD> $DATA                                                                          
 INPUT CARD>Chloroacetaldehyde and 2 x water                                                
 INPUT CARD>C1                                                                              
 INPUT CARD>Cl   17.0   1.52444   0.27577   0.93222                                         
 INPUT CARD>C     6.0   2.80902  -0.06794  -0.20770                                         
 INPUT CARD>C     6.0   2.92877   1.00230  -1.25052                                         
 INPUT CARD>O     8.0   3.53526   0.80155  -2.30670                                         
 INPUT CARD>H     1.0   2.58789  -1.06259  -0.66929                                         
 INPUT CARD>H     1.0   3.76408  -0.13212   0.37483                                         
 INPUT CARD>H     1.0   2.45960   1.98455  -1.01928                                         
 INPUT CARD>O     8.0   4.51017  -1.55557  -4.21166                                         
 INPUT CARD>H     1.0   4.18880  -0.79803  -3.70973                                         
 INPUT CARD>H     1.0   4.16125  -1.40356  -5.09656                                         
 INPUT CARD>O     8.0   3.13082   0.46643  -5.16906                                         
 INPUT CARD>H     1.0   3.52025   0.82830  -5.97188                                         
 INPUT CARD>H     1.0   3.30177   1.14626  -4.50727                                         
 INPUT CARD> $END                                                                           
   25000000 WORDS OF MEMORY AVAILABLE

     BASIS OPTIONS
     -------------
     GBASIS=AM1          IGAUSS=       0      POLAR=NONE    
     NDFUNC=       0     NFFUNC=       0     DIFFSP=       F
     NPFUNC=       0      DIFFS=       F     BASNAM=        


     RUN TITLE
     ---------
 Chloroacetaldehyde and 2 x water                                                

 THE POINT GROUP OF THE MOLECULE IS C1      
 THE ORDER OF THE PRINCIPAL AXIS IS     0

 ATOM      ATOMIC                      COORDINATES (BOHR)
           CHARGE         X                   Y                   Z
 CL         17.0     2.8807738847        0.5211297356        1.7616403603
 C           6.0     5.3082780940       -0.1283879836       -0.3924960876
 C           6.0     5.5345727811        1.8940723575       -2.3631401422
 O           8.0     6.6806726954        1.5147098655       -4.3590309359
 H           1.0     4.8904029864       -2.0080039373       -1.2647747063
 H           1.0     7.1130797959       -0.2496705975        0.7083259920
 H           1.0     4.6479700394        3.7502557089       -1.9261599048
 O           8.0     8.5229854580       -2.9396010547       -7.9588833534
 H           1.0     7.9156842174       -1.5080580300       -7.0103731884
 H           1.0     7.8636222664       -2.6523438073       -9.6311018800
 O           8.0     5.9163919169        0.8814248925       -9.7681070141
 H           1.0     6.6523079083        1.5652600356      -11.2852168316
 H           1.0     6.2394405745        2.1661173107       -8.5175052527

          INTERNUCLEAR DISTANCES (ANGS.)
          ------------------------------

                1 CL         2 C          3 C          4 O          5 H     

   1 CL      0.0000000    1.7514851 *  2.6952444 *  3.8484340    2.3424277 *
   2 C       1.7514851 *  0.0000000    1.4990755 *  2.3852124 *  1.1186118 *
   3 C       2.6952444 *  1.4990755 *  0.0000000    1.2343609 *  2.1720493 *
   4 O       3.8484340    2.3852124 *  1.2343609 *  0.0000000    2.6558689 *
   5 H       2.3424277 *  1.1186118 *  2.1720493 *  2.6558689 *  0.0000000  
   6 H       2.3437246 *  1.1205355 *  2.1509101 *  2.8486315 *  1.8273981 *
   7 H       2.7573185 *  2.2346077 *  1.1128376 *  2.0527990 *  3.0698556  
   8 O       6.2231737    4.5976788    4.2204117    3.1836044    4.0603663  
   9 H       5.4588974    3.8341933    3.2979657    2.2258176 *  3.4463285  
  10 H       6.7911048    5.2453178    4.7009779    3.6107745    4.7108855  
  11 O       6.3120857    5.0004199    3.9601688    2.9101515 *  4.7833676  
  12 H       7.2079917    5.8766372    4.7614457    3.6653083    5.7063316  
  13 H       5.7883250    4.4948177    3.2812001    2.2396095 *  4.4853911  

                6 H          7 H          8 O          9 H         10 H     

   1 CL      2.3437246 *  2.7573185 *  6.2231737    5.4588974    6.7911048  
   2 C       1.1205355 *  2.2346077 *  4.5976788    3.8341933    5.2453178  
   3 C       2.1509101 *  1.1128376 *  4.2204117    3.2979657    4.7009779  
   4 O       2.8486315 *  2.0527990 *  3.1836044    2.2258176 *  3.6107745  
   5 H       1.8273981 *  3.0698556    4.0603663    3.4463285    4.7108855  
   6 H       0.0000000    2.8505267 *  4.8599126    4.1602228    5.6311999  
   7 H       2.8505267 *  0.0000000    5.1892752    4.2392694    5.5676848  
   8 O       4.8599126    5.1892752    0.0000000    0.9638876 *  0.9632758 *
   9 H       4.1602228    4.2392694    0.9638876 *  0.0000000    1.5135135 *
  10 H       5.6311999    5.5676848    0.9632758 *  1.5135135 *  0.0000000  
  11 O       5.6119512    4.4694405    2.6282514 *  2.2017777 *  2.1363298 *
  12 H       6.4235961    5.1952035    3.1242843    2.8651756 *  2.4815852 *
  13 H       5.0678286    3.6848412    2.9744749 *  2.2810427 *  2.7545509 *

               11 O         12 H         13 H     

   1 CL      6.3120857    7.2079917    5.7883250  
   2 C       5.0004199    5.8766372    4.4948177  
   3 C       3.9601688    4.7614457    3.2812001  
   4 O       2.9101515 *  3.6653083    2.2396095 *
   5 H       4.7833676    5.7063316    4.4853911  
   6 H       5.6119512    6.4235961    5.0678286  
   7 H       4.4694405    5.1952035    3.6848412  
   8 O       2.6282514 *  3.1242843    2.9744749 *
   9 H       2.2017777 *  2.8651756 *  2.2810427 *
  10 H       2.1363298 *  2.4815852 *  2.7545509 *
  11 O       0.0000000    0.9628736 *  0.9640325 *
  12 H       0.9628736 *  0.0000000    1.5145674 *
  13 H       0.9640325 *  1.5145674 *  0.0000000  

  * ... LESS THAN  3.000


 TOTAL NUMBER OF BASIS SET SHELLS             =   13
 NUMBER OF CARTESIAN GAUSSIAN BASIS FUNCTIONS =   31
 NUMBER OF ELECTRONS                          =   40
 CHARGE OF MOLECULE                           =    0
 SPIN MULTIPLICITY                            =    1
 NUMBER OF OCCUPIED ORBITALS (ALPHA)          =   20
 NUMBER OF OCCUPIED ORBITALS (BETA )          =   20
 TOTAL NUMBER OF ATOMS                        =   13
 THE NUCLEAR REPULSION ENERGY IS      274.5509492071

 THE PARAMETERS USED IN THIS CALCULATION ARE DESCRIBED IN:

  H: (AM1): M.J.S. DEWAR ET AL, J. AM. CHEM. SOC. 107 3902-3909 (1985)          
  C: (AM1): M.J.S. DEWAR ET AL, J. AM. CHEM. SOC. 107 3902-3909 (1985)          
  O: (AM1): M.J.S. DEWAR ET AL, J. AM. CHEM. SOC. 107 3902-3909 (1985)          
 CL: (AM1): M.J.S. DEWAR AND E. G. ZOEBISCH, THEOCHEM, 180, 1 (1988).           

 THERE ARE    6 HEAVY AND    7 LIGHT ATOMS,
 YIELDING A TOTAL OF      1941 MOPAC 2E- INTEGRALS.

     $CONTRL OPTIONS
     ---------------
 SCFTYP=RHF          RUNTYP=OPTIMIZE     EXETYP=RUN     
 MPLEVL=       0     CITYP =NONE         CCTYP =NONE         VBTYP =NONE    
 DFTTYP=NONE         TDDFT =NONE    
 MULT  =       1     ICHARG=       0     NZVAR =       0     COORD =UNIQUE  
 PP    =NONE         RELWFN=NONE         LOCAL =NONE         NUMGRD=       F
 ISPHER=      -1     NOSYM =       0     MAXIT =      30     UNITS =ANGS    
 PLTORB=       F     MOLPLT=       F     AIMPAC=       F     FRIEND=        
 NPRINT=       7     IREST =       0     GEOM  =INPUT   
 NORMF =       0     NORMP =       0     ITOL  =      20     ICUT  =       9
 INTTYP=BEST         GRDTYP=BEST         QMTTOL= 1.0E-06

     $SYSTEM OPTIONS
     ---------------
  REPLICATED MEMORY=    25000000 WORDS (ON EVERY NODE).
 DISTRIBUTED MEMDDI=          24 MILLION WORDS IN AGGREGATE,
 MEMDDI DISTRIBUTED OVER   1 PROCESSORS IS    24000000 WORDS/PROCESSOR.
 TOTAL MEMORY REQUESTED ON EACH PROCESSOR=    49000000 WORDS.
 TIMLIM=      525600.00 MINUTES, OR     365.0 DAYS.
 PARALL= F  BALTYP=  DLB     KDIAG=    0  COREFL= F
 MXSEQ2=     300 MXSEQ3=     150  mem10=         0  mem22=         0

 ** LOOKING UP INTERNALLY STORED DATA FOR SOLVENT=WATER    **
 OPTICAL AND PHYSICAL CONSTANTS:
 EPS= 78.390; EPSINF=  1.776; RSOLV=  1.385 A; VMOL=  18.070 ML/MOL;
 TCE= .25700E-03 1/K; STEN= 71.810 DYN/CM;  DSTEN=  0.6500; CMF=  1.2770


     -----------------------------------
     INPUT FOR PCM SOLVATION CALCULATION 
     -----------------------------------
     IEF   =     -10
     ICOMP =       0     IFIELD=       0     ICAV  =       0
     IDISP =       0     IREP  =       0     IDP   =       0

     SOLVNT=WATER        EPS   = 78.3900     EPSINF=  1.7760
     VMOL  = 18.0700     TCE   =  0.00025700 STEN  = 71.8100
     DSTEN =  0.6500     CMF   =  1.2770     RSOLV =  1.3850

     NESFP =       0
     OMEGA = 40.0000     RET   =100.0000     FRO   =  0.7000

     TABS  =298.0000     IPRINT=       0

     --------------------------------
     INPUT FOR ITERATIVE C-PCM METHOD 
     --------------------------------
     IPCMIT  =         1     MXDIIS  =        50
     MXITR1  =        50     MXITR2  =        50
     THRES   = 0.100E-09     IMUL    =         3
     RCUT(1) =   15.0000     RCUT(2) =   30.0000

     IDIRCT  =         1
     IMGABI  =         0     RABI    =    4.0000
     IMGASC  =         0     RASC    =   20.0000
     THRSLS  = 0.500E-03     DENSLS  =    0.0100
     IEFPOL  =         1     REFPOL  =    0.0000

     INPUT FOR ISOTROPIC DIELECTRICS
     -------------------------------
     EPS=    78.39

     INPUT FOR CAVITY DEFINITION 
     ---------------------------
   ATOM               COORDINATES                RADIUS       EPS
      1      1.5244      0.2758      0.9322      1.8100     78.3900
      2      2.8090     -0.0679     -0.2077      1.7000     78.3900
      3      2.9288      1.0023     -1.2505      1.7000     78.3900
      4      3.5353      0.8015     -2.3067      1.5000     78.3900
      5      2.5879     -1.0626     -0.6693      1.2000     78.3900
      6      3.7641     -0.1321      0.3748      1.2000     78.3900
      7      2.4596      1.9845     -1.0193      1.2000     78.3900
      8      4.5102     -1.5556     -4.2117      1.5000     78.3900
      9      4.1888     -0.7980     -3.7097      1.2000     78.3900
     10      4.1612     -1.4036     -5.0966      1.2000     78.3900
     11      3.1308      0.4664     -5.1691      1.5000     78.3900
     12      3.5202      0.8283     -5.9719      1.2000     78.3900
     13      3.3018      1.1463     -4.5073      1.2000     78.3900

     ----------------------------
     INPUT FOR TESSERA DEFINITION
     ----------------------------
     NTSALL  =        60     MTHALL  =         4
     MTHAUT  =         0     AUTFRE  =    2.0000
     NTSFRZ  =        60     KEEPSM  =         0
     AREAKP  =   10.0000     BONDRY  =    1.0000
     AREATL  =    0.0100

     SPHERE     INITS       METHOD
          1        60       FIXPVA
          2        60       FIXPVA
          3        60       FIXPVA
          4        60       FIXPVA
          5        60       FIXPVA
          6        60       FIXPVA
          7        60       FIXPVA
          8        60       FIXPVA
          9        60       FIXPVA
         10        60       FIXPVA
         11        60       FIXPVA
         12        60       FIXPVA
         13        60       FIXPVA

     ------------------------------
      FIXPVA TESSELLATION FOR PCM
         PEIFENG SU AND HUI LI
     UNIVERSITY OF NEBRASKA-LINCOLN
     ------------------------------


     -----------------------------
     INPUT FOR PCM GRADIENT METHOD
     -----------------------------
     IPCDER  =         3     IFAST   =         0
     FIXPVA GRADIENTS BY PEIFENG SU AND HUI LI
  

 PCM DIMENSIONS: MXSP=  2000, MXTS=       780, MEMORY=         45163

 Using Gaussians for PCM contribution to MEP, params: 0.10000E+01 0.10000E-07

          ----------------
          PROPERTIES INPUT
          ----------------

     MOMENTS            FIELD           POTENTIAL          DENSITY
 IEMOM =       1   IEFLD =       0   IEPOT =       0   IEDEN =       0
 WHERE =COMASS     WHERE =NUCLEI     WHERE =NUCLEI     WHERE =NUCLEI  
 OUTPUT=BOTH       OUTPUT=BOTH       OUTPUT=BOTH       OUTPUT=BOTH    
 IEMINT=       0   IEFINT=       0                     IEDINT=       0
                                                       MORB  =       0
          EXTRAPOLATION IN EFFECT
 ORBITAL PRINTING OPTION: NPREO=     1    31     2     1

     -------------------------------
     INTEGRAL TRANSFORMATION OPTIONS
     -------------------------------
     NWORD  =            0
     CUTOFF = 1.0E-09     MPTRAN =       0
     DIRTRF =       F     AOINTS =DUP     

          ----------------------
          INTEGRAL INPUT OPTIONS
          ----------------------
 NOPK  =       1 NORDER=       0 SCHWRZ=       T

     ------------------------------------------
     THE POINT GROUP IS C1 , NAXIS= 1, ORDER= 1
     ------------------------------------------

     DIMENSIONS OF THE SYMMETRY SUBSPACES ARE
 A   =   31

 ..... DONE SETTING UP THE RUN .....
 STEP CPU TIME =     0.01 TOTAL CPU TIME =          0.0 (      0.0 MIN)
 TOTAL WALL CLOCK TIME=          0.0 SECONDS, CPU UTILIZATION IS   100.00%


          -----------------------------
          STATIONARY POINT LOCATION RUN
          -----------------------------

 OBTAINING INITIAL HESSIAN, HESS=GUESS   
 CARTESIAN COORDINATE OPTIMIZATION USING BADGER'S RULE FORCE CONSTANT GUESS

          PARAMETERS CONTROLLING GEOMETRY SEARCH ARE
          METHOD =QA                  UPHESS =BFGS    
          NNEG   =         0          NFRZ   =         0
          NSTEP  =       200          IFOLOW =         1
          HESS   =GUESS               RESTAR =         F
          IHREP  =        20          HSSEND =         T
          NPRT   =         0          NPUN   =         0
          OPTTOL = 5.000E-04          RMIN   = 1.500E-03
          RMAX   = 1.000E-01          RLIM   = 7.000E-02
          DXMAX  = 3.000E-01          PURIFY =         F
          MOVIE  =         F          TRUPD  =         T
          TRMAX  = 5.000E-01          TRMIN  = 5.000E-02
          ITBMAT =         5          STPT   =         F
          STSTEP = 1.000E-02          PROJCT=          T

 BEGINNING GEOMETRY SEARCH POINT NSERCH=   0 ...

 COORDINATES OF ALL ATOMS ARE (ANGS)
   ATOM   CHARGE       X              Y              Z
 ------------------------------------------------------------
 CL         17.0   1.5244400000   0.2757700000   0.9322200000
 C           6.0   2.8090200000  -0.0679400000  -0.2077000000
 C           6.0   2.9287700000   1.0023000000  -1.2505200000
 O           8.0   3.5352600000   0.8015500000  -2.3067000000
 H           1.0   2.5878900000  -1.0625900000  -0.6692900000
 H           1.0   3.7640800000  -0.1321200000   0.3748300000
 H           1.0   2.4596000000   1.9845500000  -1.0192800000
 O           8.0   4.5101700000  -1.5555700000  -4.2116600000
 H           1.0   4.1888000000  -0.7980300000  -3.7097300000
 H           1.0   4.1612500000  -1.4035600000  -5.0965600000
 O           8.0   3.1308200000   0.4664300000  -5.1690600000
 H           1.0   3.5202500000   0.8283000000  -5.9718800000
 H           1.0   3.3017700000   1.1462600000  -4.5072700000

          ********************
          1 ELECTRON INTEGRALS
          ********************

          **************************
          1 AND 2 ELECTRON INTEGRALS
          **************************

 MOPAC ONE- AND TWO-ELECTRON INTEGRALS REQUIRE      2933 WORDS.
 ...... END OF ONE- AND TWO-ELECTRON INTEGRALS......
 STEP CPU TIME =     0.00 TOTAL CPU TIME =          0.0 (      0.0 MIN)
 TOTAL WALL CLOCK TIME=          0.0 SECONDS, CPU UTILIZATION IS   100.00%
 ...... END OF ONE-ELECTRON INTEGRALS ......
 STEP CPU TIME =     0.00 TOTAL CPU TIME =          0.0 (      0.0 MIN)
 TOTAL WALL CLOCK TIME=          0.0 SECONDS, CPU UTILIZATION IS   100.00%

          -------------
          GUESS OPTIONS
          -------------
          GUESS =HUCKEL            NORB  =       0          NORDER=       0
          MIX   =       F          PRTMO =       F          PUNMO =       F
          TOLZ  = 1.0E-08          TOLE  = 1.0E-05
          SYMDEN=       F          PURIFY=       F

 INITIAL GUESS ORBITALS GENERATED BY HUCKEL   ROUTINE.

 SYMMETRIES FOR INITIAL GUESS ORBITALS FOLLOW.   BOTH SET(S).
    20 ORBITALS ARE OCCUPIED (    0 CORE ORBITALS).
     1=A        2=A        3=A        4=A        5=A        6=A        7=A   
     8=A        9=A       10=A       11=A       12=A       13=A       14=A   
    15=A       16=A       17=A       18=A       19=A       20=A       21=A   
    22=A       23=A       24=A       25=A       26=A       27=A       28=A   
    29=A       30=A   
 ...... END OF INITIAL ORBITAL SELECTION ......
 STEP CPU TIME =     0.00 TOTAL CPU TIME =          0.0 (      0.0 MIN)
 TOTAL WALL CLOCK TIME=          0.0 SECONDS, CPU UTILIZATION IS   100.00%

          -------------------------------------
          ---- POLARISABLE CONTINUUM MODEL ----
          ----      UNIVERSITY OF PISA     ----
          -------------------------------------

     ----------------------------
     INPUT FOR TESSERA DEFINITION
     ----------------------------
     NTSALL  =        60     MTHALL  =         4
     MTHAUT  =         0     AUTFRE  =    2.0000
     NTSFRZ  =        60     KEEPSM  =         0
     AREAKP  =   10.0000     BONDRY  =    1.0000
     AREATL  =    0.0100

     SPHERE     INITS       METHOD
          1        60       FIXPVA
          2        60       FIXPVA
          3        60       FIXPVA
          4        60       FIXPVA
          5        60       FIXPVA
          6        60       FIXPVA
          7        60       FIXPVA
          8        60       FIXPVA
          9        60       FIXPVA
         10        60       FIXPVA
         11        60       FIXPVA
         12        60       FIXPVA
         13        60       FIXPVA

     ------------------------------
      FIXPVA TESSELLATION FOR PCM
         PEIFENG SU AND HUI LI
     UNIVERSITY OF NEBRASKA-LINCOLN
     ------------------------------


     INPUT FOR CAVITY DEFINITION 
     ---------------------------
   ATOM               COORDINATES                RADIUS       EPS
      1      1.5244      0.2758      0.9322      1.8100     78.3900
      2      2.8090     -0.0679     -0.2077      1.7000     78.3900
      3      2.9288      1.0023     -1.2505      1.7000     78.3900
      4      3.5353      0.8015     -2.3067      1.5000     78.3900
      5      2.5879     -1.0626     -0.6693      1.2000     78.3900
      6      3.7641     -0.1321      0.3748      1.2000     78.3900
      7      2.4596      1.9845     -1.0193      1.2000     78.3900
      8      4.5102     -1.5556     -4.2117      1.5000     78.3900
      9      4.1888     -0.7980     -3.7097      1.2000     78.3900
     10      4.1612     -1.4036     -5.0966      1.2000     78.3900
     11      3.1308      0.4664     -5.1691      1.5000     78.3900
     12      3.5202      0.8283     -5.9719      1.2000     78.3900
     13      3.3018      1.1463     -4.5073      1.2000     78.3900

 MEMORY USED TO GENERATE CAVITY=    262582


 TOTAL NUMBER OF SPHERES=    13
 SPHERE           CENTER  (X,Y,Z) (A)               RADIUS (A)      AREA(A*A)
     1   1.524440000   0.275770000   0.932220000   2.172000000  38.490629521
     2   2.809020000  -0.067940000  -0.207700000   2.040000000   3.657223925
     3   2.928770000   1.002300000  -1.250520000   2.040000000  12.181771764
     4   3.535260000   0.801550000  -2.306700000   1.800000000   8.978195913
     5   2.587890000  -1.062590000  -0.669290000   1.440000000   7.103966586
     6   3.764080000  -0.132120000   0.374830000   1.440000000   8.266216870
     7   2.459600000   1.984550000  -1.019280000   1.440000000   7.030749145
     8   4.510170000  -1.555570000  -4.211660000   1.800000000  20.269614417
     9   4.188800000  -0.798030000  -3.709730000   1.440000000   0.594081452
    10   4.161250000  -1.403560000  -5.096560000   1.440000000   4.865725829
    11   3.130820000   0.466430000  -5.169060000   1.800000000  12.439258795
    12   3.520250000   0.828300000  -5.971880000   1.440000000   9.845727228
    13   3.301770000   1.146260000  -4.507270000   1.440000000   4.778707327

 TOTAL NUMBER OF TESSERAE=     272
 SURFACE AREA=   138.50186877(A**2)    CAVITY VOLUME=    119.38906918 (A**3)
 STEP CPU TIME =     0.00 TOTAL CPU TIME =          0.0 (      0.0 MIN)
 TOTAL WALL CLOCK TIME=          0.0 SECONDS, CPU UTILIZATION IS   100.00%

          THE SOLUTE IS ENCLOSED IN ONE CAVITY
 DONE CHECKING SEPARATION.
 STEP CPU TIME =     0.00 TOTAL CPU TIME =          0.0 (      0.0 MIN)
 TOTAL WALL CLOCK TIME=          0.0 SECONDS, CPU UTILIZATION IS   100.00%
 
 ..... DONE GENERATING CAVITY .....
 STEP CPU TIME =     0.00 TOTAL CPU TIME =          0.0 (      0.0 MIN)
 TOTAL WALL CLOCK TIME=          0.0 SECONDS, CPU UTILIZATION IS   100.00%

          --------------------------
               R-AM1 SCF CALCULATION
          --------------------------

     NUCLEAR ENERGY =       119.8095358363
     MAXIT =   30     NPUNCH=    2
     EXTRAP=T  DAMP=F  SHIFT=F  RSTRCT=F  DIIS=F  DEM=F  SOSCF=F
     DENSITY MATRIX CONV=  1.00E-05
     MEMORY REQUIRED FOR RHF ITERS=     93158 WORDS.

 ITER EX DEM     TOTAL ENERGY        E CHANGE  DENSITY CHANGE    DIIS ERROR
   1  0  0      -61.5576167076   -61.5576167076   0.276548250   0.000000000
   2  1  0      -62.0444697043    -0.4868529967   0.073765696   0.000000000
   3  2  0      -62.0812478440    -0.0367781397   0.031177225   0.000000000
   4  3  0      -62.0856826068    -0.0044347628   0.014657687   0.000000000
   5  0  0      -62.0864361035    -0.0007534967   0.012184766   0.000000000
   6  1  0      -62.0866206299    -0.0001845264   0.000255550   0.000000000
   7  2  0      -62.0866210166    -0.0000003867   0.000145692   0.000000000
   8  3  0      -62.0866211074    -0.0000000907   0.000082673   0.000000000
   9  4  0      -62.0866211324    -0.0000000251   0.000047082   0.000000000
  10  5  0      -62.0866211402    -0.0000000078   0.000027053   0.000000000
  11  6  0      -62.0866211429    -0.0000000026   0.000017273   0.000000000
  12  7  0      -62.0866211439    -0.0000000010   0.000012266   0.000000000
  13  8  0      -62.0866211443    -0.0000000004   0.000008733   0.000000000
  14  9  0      -62.0866211445    -0.0000000002   0.000006235   0.000000000

          -----------------
          DENSITY CONVERGED
          -----------------
     TIME TO FORM FOCK OPERATORS=       0.1 SECONDS (       0.0 SEC/ITER)
     TIME TO SOLVE SCF EQUATIONS=       0.0 SECONDS (       0.0 SEC/ITER)

 FINAL R-AM1 ENERGY IS      -62.0866211445 AFTER  14 ITERATIONS

 HEAT OF FORMATION IS      -182.98842 KCAL/MOL
 
  
   PCM ASC=      0.0394046863
   GCAVP  =      0.0000000000
   GDISP  =      0.0000000000
   GREP   =      0.0000000000

          ------------
          EIGENVECTORS
          ------------

                      1          2          3          4          5
                   -1.4611    -1.3891    -1.3537    -1.3187    -1.1392
                     A          A          A          A          A   
    1  CL 1  S    0.175792   0.932568   0.034179  -0.000506  -0.277343
    2  CL 1  X    0.038054   0.055918  -0.000717   0.000042   0.161129
    3  CL 1  Y   -0.003295  -0.014239  -0.000442  -0.000131  -0.027264
    4  CL 1  Z   -0.040582  -0.049437   0.001145   0.000003  -0.153375
    5  C  2  S    0.227599   0.192732  -0.008899   0.000422   0.637727
    6  C  2  X    0.003160  -0.087044  -0.004470   0.000160   0.024452
    7  C  2  Y    0.055867   0.020303  -0.003687  -0.000698   0.065262
    8  C  2  Z   -0.061229   0.084100   0.008091  -0.000023  -0.070152
    9  C  3  S    0.492039  -0.042535  -0.034663  -0.004112   0.311362
   10  C  3  X    0.117363  -0.051593  -0.009617  -0.000412  -0.087976
   11  C  3  Y   -0.071350  -0.011184   0.003763  -0.001656  -0.111850
   12  C  3  Z   -0.181216   0.102314   0.012040   0.002599   0.264581
   13  O  4  S    0.725650  -0.215430  -0.035916  -0.004124  -0.382391
   14  O  4  X   -0.117820   0.026669   0.009629   0.004149  -0.007098
   15  O  4  Y    0.031283  -0.013735  -0.006017  -0.007462  -0.038666
   16  O  4  Z    0.209240  -0.043742  -0.027770  -0.000955   0.045564
   17  H  5  S    0.075956   0.054554  -0.002545   0.000988   0.225846
   18  H  6  S    0.072117   0.056313  -0.003121   0.000274   0.232424
   19  H  7  S    0.119672   0.001812  -0.008175  -0.001757   0.118210
   20  O  8  S    0.028839  -0.022691   0.520447   0.733226   0.007276
   21  O  8  X   -0.003703   0.002455  -0.051164  -0.062662  -0.000190
   22  O  8  Y    0.006128  -0.003705   0.070385   0.084058  -0.000772
   23  O  8  Z    0.000357   0.000781  -0.029986  -0.035888  -0.001732
   24  H  9  S    0.021391  -0.011100   0.185989   0.222626  -0.003629
   25  H 10  S    0.010061  -0.008086   0.187221   0.222923   0.002908
   26  O 11  S    0.031232  -0.029703   0.723246  -0.533585   0.013399
   27  O 11  X    0.003197  -0.002755   0.063347  -0.032715   0.000579
   28  O 11  Y    0.005447  -0.004273   0.090236  -0.088892  -0.000628
   29  O 11  Z    0.002347  -0.000577  -0.008871   0.017647  -0.003910
   30  H 12  S    0.009947  -0.009552   0.234529  -0.170559   0.004948
   31  H 13  S    0.021016  -0.013191   0.235846  -0.166229  -0.005781

                      6          7          8          9         10
                   -0.8450    -0.6810    -0.6563    -0.6492    -0.6166
                     A          A          A          A          A   
    1  CL 1  S    0.070698  -0.011220   0.048244   0.043651   0.017215
    2  CL 1  X   -0.153728   0.030336  -0.198910  -0.182584  -0.111303
    3  CL 1  Y    0.117594   0.028882   0.021507  -0.020231   0.262671
    4  CL 1  Z    0.081528  -0.047950   0.137822   0.142043  -0.046331
    5  C  2  S   -0.329962  -0.012153  -0.026118  -0.003529  -0.044777
    6  C  2  X   -0.005090  -0.049351   0.113563   0.115499  -0.006656
    7  C  2  Y    0.224387   0.063588  -0.021768  -0.091687   0.399260
    8  C  2  Z   -0.160045   0.020583  -0.239226  -0.202669  -0.242520
    9  C  3  S    0.524300   0.036061   0.018213  -0.004309   0.049670
   10  C  3  X   -0.072101  -0.108850   0.138029   0.155669  -0.124609
   11  C  3  Y    0.199072   0.096919  -0.335400  -0.310018  -0.222786
   12  C  3  Z   -0.002868   0.078450  -0.045148  -0.122134   0.429336
   13  O  4  S   -0.374877   0.048776  -0.120754  -0.146726   0.212095
   14  O  4  X   -0.174788   0.018821  -0.031249  -0.098656   0.287395
   15  O  4  Y    0.145222   0.033840  -0.290320  -0.195004  -0.375585
   16  O  4  Z    0.244693  -0.173684   0.257995   0.285634  -0.273618
   17  H  5  S   -0.210560  -0.038741   0.049076   0.088689  -0.198775
   18  H  6  S   -0.190834  -0.027084  -0.033189  -0.006097  -0.134079
   19  H  7  S    0.331910   0.109358  -0.214785  -0.232524   0.001448
   20  O  8  S    0.018224  -0.014529   0.005102  -0.007774  -0.046770
   21  O  8  X    0.004163  -0.003122   0.013277  -0.014105  -0.042532
   22  O  8  Y   -0.015956   0.175306   0.206252  -0.142947  -0.002001
   23  O  8  Z   -0.020234   0.365284   0.486611  -0.347873  -0.154507
   24  H  9  S   -0.031614   0.254153   0.292595  -0.201169  -0.028651
   25  H 10  S    0.013249  -0.233008  -0.299680   0.212593   0.110287
   26  O 11  S    0.012125  -0.014509   0.009367   0.030488  -0.013134
   27  O 11  X   -0.000888  -0.078865   0.021344  -0.081191   0.024934
   28  O 11  Y   -0.007178   0.150228  -0.036124   0.045787  -0.010985
   29  O 11  Z   -0.019114   0.593102  -0.185131   0.425684  -0.026291
   30  H 12  S    0.010237  -0.339291   0.108250  -0.264502   0.021266
   31  H 13  S   -0.021882   0.364249  -0.120883   0.212259  -0.004991

                     11         12         13         14         15
                   -0.6055    -0.5642    -0.5490    -0.5390    -0.5220
                     A          A          A          A          A   
    1  CL 1  S    0.022973   0.008116   0.026238  -0.050058  -0.016913
    2  CL 1  X    0.114575  -0.046842  -0.166931   0.475564  -0.124701
    3  CL 1  Y    0.141080   0.024515  -0.036276   0.077543  -0.191892
    4  CL 1  Z    0.314373   0.038908   0.190074  -0.231935  -0.365682
    5  C  2  S    0.008904   0.008210   0.017977  -0.047932  -0.018726
    6  C  2  X    0.470134   0.044106   0.165877  -0.206981  -0.302852
    7  C  2  Y    0.174553   0.007134  -0.151589   0.305253  -0.054471
    8  C  2  Z    0.246103  -0.045154  -0.087060   0.314023  -0.095729
    9  C  3  S   -0.005923   0.000692   0.024115  -0.028504   0.000457
   10  C  3  X    0.359462  -0.004059  -0.046611   0.077716   0.354621
   11  C  3  Y    0.123894  -0.031970   0.075928  -0.182000   0.099457
   12  C  3  Z    0.164237   0.022294   0.001834  -0.169589   0.150548
   13  O  4  S   -0.006188   0.006541  -0.008456  -0.094034  -0.015592
   14  O  4  X    0.358988  -0.003515  -0.027034  -0.191909   0.554919
   15  O  4  Y    0.137183   0.002487   0.060104  -0.176329   0.183134
   16  O  4  Z    0.197043  -0.029134  -0.102138   0.249242   0.330601
   17  H  5  S   -0.241257   0.004756   0.113900  -0.299112   0.107592
   18  H  6  S    0.365000   0.013147   0.087984  -0.045856  -0.249741
   19  H  7  S   -0.009577  -0.016982   0.074700  -0.178723  -0.022171
   20  O  8  S    0.010557   0.215386  -0.244948  -0.082732  -0.027804
   21  O  8  X    0.010425   0.265375  -0.321678  -0.114573  -0.042868
   22  O  8  Y   -0.003939  -0.365926   0.441354   0.166256   0.066364
   23  O  8  Z    0.026011   0.110486  -0.202555  -0.062504  -0.016970
   24  H  9  S    0.001509  -0.221528   0.228264   0.082823   0.030483
   25  H 10  S   -0.019702  -0.189997   0.240076   0.077467   0.024209
   26  O 11  S    0.019191  -0.253295  -0.206151  -0.095251  -0.037129
   27  O 11  X   -0.024154   0.183625   0.357540   0.159533   0.067652
   28  O 11  Y   -0.013045   0.634936   0.279789   0.170006   0.086224
   29  O 11  Z    0.044849  -0.092001  -0.034810   0.012056   0.025919
   30  H 12  S   -0.036926   0.246257   0.195576   0.080637   0.024331
   31  H 13  S    0.004648   0.265269   0.169780   0.094922   0.046700

                     16         17         18         19         20
                   -0.4629    -0.4617    -0.4569    -0.4356    -0.4104
                     A          A          A          A          A   
    1  CL 1  S    0.004473  -0.001593   0.000086  -0.000225   0.004261
    2  CL 1  X   -0.216595   0.085847  -0.004923   0.533233   0.076738
    3  CL 1  Y    0.701324  -0.284618   0.006667   0.423661  -0.279181
    4  CL 1  Z   -0.348386   0.143078  -0.005385   0.475187   0.208643
    5  C  2  S    0.083040  -0.031735   0.001321  -0.001957   0.093802
    6  C  2  X    0.063403  -0.024951   0.001586  -0.228182  -0.047928
    7  C  2  Y   -0.002992   0.006297  -0.000662  -0.187692   0.317805
    8  C  2  Z   -0.058180   0.018829  -0.000359  -0.199354  -0.239786
    9  C  3  S   -0.108901   0.043270  -0.001274   0.003245   0.006720
   10  C  3  X    0.064243  -0.027808   0.000167   0.019136   0.050517
   11  C  3  Y   -0.033384   0.008245  -0.000219   0.027006  -0.269025
   12  C  3  Z   -0.104481   0.045353  -0.001792   0.018067   0.089441
   13  O  4  S   -0.020439   0.011361  -0.000421   0.001293   0.005285
   14  O  4  X   -0.110770   0.042504  -0.002329   0.155350  -0.126583
   15  O  4  Y    0.339401  -0.131056   0.003684   0.039865   0.641831
   16  O  4  Z   -0.014721   0.000292  -0.000473   0.058146  -0.194011
   17  H  5  S    0.057117  -0.025054   0.000217   0.277877  -0.126715
   18  H  6  S    0.069372  -0.029105   0.001847  -0.273031  -0.130007
   19  H  7  S   -0.143587   0.053592  -0.001483   0.031107  -0.345217
   20  O  8  S    0.013278   0.048700  -0.005346  -0.000128  -0.002381
   21  O  8  X    0.060378   0.219868   0.806744   0.002894  -0.017364
   22  O  8  Y   -0.016765  -0.112425   0.524566   0.001383   0.031974
   23  O  8  Z    0.029996   0.044273  -0.245604  -0.001655   0.012162
   24  H  9  S   -0.010075  -0.052031   0.005674  -0.000364   0.004750
   25  H 10  S   -0.018908  -0.052081   0.005812   0.000355  -0.000380
   26  O 11  S    0.002708   0.006364   0.001720  -0.000569   0.001050
   27  O 11  X    0.317398   0.773203  -0.105205   0.002798  -0.011890
   28  O 11  Y   -0.167640  -0.388116   0.042106   0.005161  -0.020705
   29  O 11  Z    0.079958   0.203895  -0.024368   0.003579  -0.014335
   30  H 12  S   -0.002449  -0.007537  -0.002260  -0.000309   0.000817
   31  H 13  S   -0.003047  -0.004036  -0.001797   0.001485  -0.002282

                     21         22         23         24         25
                    0.0080     0.0334     0.0976     0.1253     0.1285
                     A          A          A          A          A   
    1  CL 1  S    0.027687   0.080665  -0.009609   0.004410  -0.000985
    2  CL 1  X    0.159339   0.447503  -0.042229   0.016733   0.040133
    3  CL 1  Y   -0.036276  -0.108767   0.060498  -0.050402   0.004655
    4  CL 1  Z   -0.157733  -0.399831  -0.005336  -0.026222   0.030242
    5  C  2  S   -0.091462  -0.314759  -0.272891  -0.135063  -0.132628
    6  C  2  X    0.168646   0.455955  -0.075072   0.155363  -0.462303
    7  C  2  Y   -0.038029  -0.200476  -0.321365   0.537860  -0.026627
    8  C  2  Z   -0.102509  -0.379633   0.411782   0.009367  -0.416868
    9  C  3  S    0.015820   0.069794   0.534789   0.017111   0.043056
   10  C  3  X    0.644740  -0.200278  -0.071893  -0.169995   0.090076
   11  C  3  Y    0.210280  -0.161155  -0.128105   0.371253   0.272461
   12  C  3  Z    0.328029  -0.087534   0.247093  -0.138772  -0.018036
   13  O  4  S   -0.006420  -0.019902  -0.030126   0.004078  -0.012123
   14  O  4  X   -0.444183   0.174899   0.073182   0.053740  -0.026219
   15  O  4  Y   -0.150971   0.085506   0.030268  -0.094139  -0.090569
   16  O  4  Z   -0.255301  -0.026003  -0.167641   0.061812  -0.047099
   17  H  5  S    0.138027  -0.009979   0.095615   0.587665  -0.164151
   18  H  6  S   -0.159237   0.109356   0.045253   0.008722   0.651923
   19  H  7  S    0.008660   0.023576  -0.472464  -0.341292  -0.205099
   20  O  8  S   -0.004101  -0.001177  -0.008286  -0.004445  -0.008862
   21  O  8  X    0.007104   0.001851   0.011429   0.005491   0.011284
   22  O  8  Y   -0.012528  -0.003344  -0.019194  -0.009535  -0.018649
   23  O  8  Z   -0.002567  -0.000831  -0.001168  -0.002923  -0.000156
   24  H  9  S    0.010304   0.002864   0.020841   0.012850   0.022675
   25  H 10  S    0.004076   0.001205   0.010718   0.004755   0.012560
   26  O 11  S   -0.007253  -0.001375  -0.011902   0.005547  -0.007383
   27  O 11  X   -0.008226  -0.001467  -0.012048   0.004687  -0.007851
   28  O 11  Y   -0.018795  -0.003080  -0.024006   0.013946  -0.011848
   29  O 11  Z   -0.011534  -0.001773  -0.009548   0.004742  -0.001708
   30  H 12  S    0.007258   0.001323   0.014978  -0.007044   0.012015
   31  H 13  S    0.017913   0.003382   0.029409  -0.016803   0.014904

                     26         27         28         29         30
                    0.1479     0.1562     0.1868     0.2078     0.2303
                     A          A          A          A          A   
    1  CL 1  S    0.011017  -0.003815  -0.001170   0.005726  -0.000744
    2  CL 1  X    0.014410  -0.012546  -0.003970   0.021528  -0.002514
    3  CL 1  Y    0.009859  -0.001745   0.001305  -0.006514   0.001340
    4  CL 1  Z   -0.015430   0.009737   0.002621  -0.014222   0.001320
    5  C  2  S    0.390962  -0.036225  -0.005440  -0.027149   0.000435
    6  C  2  X    0.190472  -0.026473  -0.010275   0.043756  -0.007534
    7  C  2  Y   -0.171348   0.078245   0.008462  -0.111662   0.009625
    8  C  2  Z   -0.146904   0.034248   0.013049  -0.032076   0.007215
    9  C  3  S    0.134369  -0.001982   0.016494  -0.213140   0.035837
   10  C  3  X   -0.080116   0.078793   0.043421  -0.323947   0.052461
   11  C  3  Y    0.449015  -0.112467  -0.044149   0.138550  -0.027113
   12  C  3  Z   -0.190741  -0.122374  -0.050991   0.548321  -0.073384
   13  O  4  S   -0.033584  -0.055014  -0.023285   0.192659  -0.023391
   14  O  4  X    0.087217   0.060592   0.017108  -0.276631   0.031274
   15  O  4  Y   -0.144517   0.015440   0.020877   0.084700   0.001423
   16  O  4  Z   -0.050521  -0.062756  -0.055801   0.482114  -0.088067
   17  H  5  S   -0.408243   0.078436   0.005900  -0.041133   0.003656
   18  H  6  S   -0.336570   0.029513   0.003464   0.000901   0.000746
   19  H  7  S   -0.397099   0.116771   0.036107  -0.108086   0.017643
   20  O  8  S   -0.032482  -0.146660  -0.211914  -0.052963   0.005615
   21  O  8  X    0.040413   0.183326   0.243955   0.062402  -0.011221
   22  O  8  Y   -0.061854  -0.250556  -0.333082  -0.029956  -0.093659
   23  O  8  Z    0.010087   0.106748   0.130285   0.153398  -0.238437
   24  H  9  S    0.076473   0.293069   0.456208   0.007157   0.212533
   25  H 10  S    0.054629   0.295179   0.440756   0.218129  -0.235206
   26  O 11  S   -0.031548  -0.223632   0.136506  -0.032561   0.006194
   27  O 11  X   -0.033397  -0.230273   0.123607  -0.054359  -0.076232
   28  O 11  Y   -0.048756  -0.367234   0.317907  -0.003933   0.119571
   29  O 11  Z    0.003033   0.040277  -0.065301   0.155435   0.538411
   30  H 12  S    0.058962   0.437189  -0.332258   0.187237   0.490524
   31  H 13  S    0.059752   0.438278  -0.320605  -0.065236  -0.512936

                     31
                    0.2418
                     A   
    1  CL 1  S    0.001047
    2  CL 1  X    0.003761
    3  CL 1  Y   -0.001982
    4  CL 1  Z   -0.001983
    5  C  2  S   -0.007770
    6  C  2  X    0.010250
    7  C  2  Y   -0.023625
    8  C  2  Z   -0.005483
    9  C  3  S   -0.073382
   10  C  3  X   -0.093106
   11  C  3  Y    0.027385
   12  C  3  Z    0.151619
   13  O  4  S    0.042449
   14  O  4  X   -0.080775
   15  O  4  Y    0.042757
   16  O  4  Z    0.160766
   17  H  5  S   -0.008246
   18  H  6  S    0.000298
   19  H  7  S   -0.016108
   20  O  8  S   -0.010068
   21  O  8  X    0.000563
   22  O  8  Y   -0.236435
   23  O  8  Z   -0.501975
   24  H  9  S    0.514403
   25  H 10  S   -0.471202
   26  O 11  S   -0.008341
   27  O 11  X    0.023645
   28  O 11  Y   -0.070552
   29  O 11  Z   -0.223169
   30  H 12  S   -0.172534
   31  H 13  S    0.212839
 ...... END OF RHF CALCULATION ......
 STEP CPU TIME =     0.15 TOTAL CPU TIME =          0.2 (      0.0 MIN)
 TOTAL WALL CLOCK TIME=          0.2 SECONDS, CPU UTILIZATION IS   100.00%

     ----------------------------------------------------------------
     PROPERTY VALUES FOR THE RHF   SELF-CONSISTENT FIELD WAVEFUNCTION
     ----------------------------------------------------------------

                    -------------
                    MOPAC CHARGES
                    -------------
         ATOM NO.   TYPE          CHARGE        ATOM  ELECTRON DENSITY
           1         CL            -0.1116          7.1116
           2         C             -0.2052          4.2052
           3         C              0.2140          3.7860
           4         O             -0.3353          6.3353
           5         H              0.1504          0.8496
           6         H              0.1572          0.8428
           7         H              0.1346          0.8654
           8         O             -0.4507          6.4507
           9         H              0.2218          0.7782
          10         H              0.2193          0.7807
          11         O             -0.4420          6.4420
          12         H              0.2218          0.7782
          13         H              0.2256          0.7744

          ---------------------
          ELECTROSTATIC MOMENTS
          ---------------------

 POINT   1           X           Y           Z (ANGS)      CHARGE
                 0.000000    0.000000    0.000000       -0.00 (A.U.)
         DX          DY          DZ         /D/  (DEBYE)
    -0.355985    3.418345    0.716569    3.510737
 ...... END OF PROPERTY EVALUATION ......
 STEP CPU TIME =     0.00 TOTAL CPU TIME =          0.2 (      0.0 MIN)
 TOTAL WALL CLOCK TIME=          0.2 SECONDS, CPU UTILIZATION IS   100.00%
 
 .... DONE WITH PCM CONTRIBUTION TO GRADIENT ....
 STEP CPU TIME =     0.01 TOTAL CPU TIME =          0.2 (      0.0 MIN)
 TOTAL WALL CLOCK TIME=          0.2 SECONDS, CPU UTILIZATION IS   100.00%

          NSERCH=  0     ENERGY=     -62.0866211

                                 -----------------------
                                 GRADIENT (HARTREE/BOHR)
                                 -----------------------
        ATOM     ZNUC       DE/DX         DE/DY         DE/DZ
 --------------------------------------------------------------
    1  CL          17.0    -0.0000381    -0.0000284     0.0000081
    2  C            6.0    -0.0000523    -0.0000316     0.0000569
    3  C            6.0    -0.0000796     0.0000735     0.0000507
    4  O            8.0     0.0000837     0.0000073    -0.0001538
    5  H            1.0    -0.0000118    -0.0000709    -0.0000296
    6  H            1.0     0.0000329    -0.0000066     0.0000365
    7  H            1.0    -0.0000255     0.0000132     0.0000068
    8  O            8.0     0.0000336     0.0000060     0.0000216
    9  H            1.0     0.0000194     0.0000208     0.0000141
   10  H            1.0     0.0000315     0.0000142    -0.0000074
   11  O            8.0    -0.0001348    -0.0002493     0.0003319
   12  H            1.0     0.0001268     0.0001829    -0.0003878
   13  H            1.0     0.0000140     0.0000689     0.0000520

          MAXIMUM GRADIENT = 0.0003878    RMS GRADIENT = 0.0001093

 NSERCH:   0  E=      -62.0866211445  GRAD. MAX=  0.0003878  R.M.S.=  0.0001093


      ***** EQUILIBRIUM GEOMETRY LOCATED *****
 COORDINATES OF ALL ATOMS ARE (ANGS)
   ATOM   CHARGE       X              Y              Z
 ------------------------------------------------------------
 CL         17.0   1.5244400000   0.2757700000   0.9322200000
 C           6.0   2.8090200000  -0.0679400000  -0.2077000000
 C           6.0   2.9287700000   1.0023000000  -1.2505200000
 O           8.0   3.5352600000   0.8015500000  -2.3067000000
 H           1.0   2.5878900000  -1.0625900000  -0.6692900000
 H           1.0   3.7640800000  -0.1321200000   0.3748300000
 H           1.0   2.4596000000   1.9845500000  -1.0192800000
 O           8.0   4.5101700000  -1.5555700000  -4.2116600000
 H           1.0   4.1888000000  -0.7980300000  -3.7097300000
 H           1.0   4.1612500000  -1.4035600000  -5.0965600000
 O           8.0   3.1308200000   0.4664300000  -5.1690600000
 H           1.0   3.5202500000   0.8283000000  -5.9718800000
 H           1.0   3.3017700000   1.1462600000  -4.5072700000

          INTERNUCLEAR DISTANCES (ANGS.)
          ------------------------------

                1 CL         2 C          3 C          4 O          5 H     

   1 CL      0.0000000    1.7514851 *  2.6952444 *  3.8484340    2.3424277 *
   2 C       1.7514851 *  0.0000000    1.4990755 *  2.3852124 *  1.1186118 *
   3 C       2.6952444 *  1.4990755 *  0.0000000    1.2343609 *  2.1720493 *
   4 O       3.8484340    2.3852124 *  1.2343609 *  0.0000000    2.6558689 *
   5 H       2.3424277 *  1.1186118 *  2.1720493 *  2.6558689 *  0.0000000  
   6 H       2.3437246 *  1.1205355 *  2.1509101 *  2.8486315 *  1.8273981 *
   7 H       2.7573185 *  2.2346077 *  1.1128376 *  2.0527990 *  3.0698556  
   8 O       6.2231737    4.5976788    4.2204117    3.1836044    4.0603663  
   9 H       5.4588974    3.8341933    3.2979657    2.2258176 *  3.4463285  
  10 H       6.7911048    5.2453178    4.7009779    3.6107745    4.7108855  
  11 O       6.3120857    5.0004199    3.9601688    2.9101515 *  4.7833676  
  12 H       7.2079917    5.8766372    4.7614457    3.6653083    5.7063316  
  13 H       5.7883250    4.4948177    3.2812001    2.2396095 *  4.4853911  

                6 H          7 H          8 O          9 H         10 H     

   1 CL      2.3437246 *  2.7573185 *  6.2231737    5.4588974    6.7911048  
   2 C       1.1205355 *  2.2346077 *  4.5976788    3.8341933    5.2453178  
   3 C       2.1509101 *  1.1128376 *  4.2204117    3.2979657    4.7009779  
   4 O       2.8486315 *  2.0527990 *  3.1836044    2.2258176 *  3.6107745  
   5 H       1.8273981 *  3.0698556    4.0603663    3.4463285    4.7108855  
   6 H       0.0000000    2.8505267 *  4.8599126    4.1602228    5.6311999  
   7 H       2.8505267 *  0.0000000    5.1892752    4.2392694    5.5676848  
   8 O       4.8599126    5.1892752    0.0000000    0.9638876 *  0.9632758 *
   9 H       4.1602228    4.2392694    0.9638876 *  0.0000000    1.5135135 *
  10 H       5.6311999    5.5676848    0.9632758 *  1.5135135 *  0.0000000  
  11 O       5.6119512    4.4694405    2.6282514 *  2.2017777 *  2.1363298 *
  12 H       6.4235961    5.1952035    3.1242843    2.8651756 *  2.4815852 *
  13 H       5.0678286    3.6848412    2.9744749 *  2.2810427 *  2.7545509 *

               11 O         12 H         13 H     

   1 CL      6.3120857    7.2079917    5.7883250  
   2 C       5.0004199    5.8766372    4.4948177  
   3 C       3.9601688    4.7614457    3.2812001  
   4 O       2.9101515 *  3.6653083    2.2396095 *
   5 H       4.7833676    5.7063316    4.4853911  
   6 H       5.6119512    6.4235961    5.0678286  
   7 H       4.4694405    5.1952035    3.6848412  
   8 O       2.6282514 *  3.1242843    2.9744749 *
   9 H       2.2017777 *  2.8651756 *  2.2810427 *
  10 H       2.1363298 *  2.4815852 *  2.7545509 *
  11 O       0.0000000    0.9628736 *  0.9640325 *
  12 H       0.9628736 *  0.0000000    1.5145674 *
  13 H       0.9640325 *  1.5145674 *  0.0000000  

  * ... LESS THAN  3.000


          NUCLEAR ENERGY    =      119.8095358363
          ELECTRONIC ENERGY =     -182.0249878280
          TOTAL ENERGY      =      -62.0866211445

 THE INITIAL GEOMETRY IS ALREADY CONVERGED,
 SO ORBITALS/PROPERTY OUTPUT IS ALREADY PRINTED ABOVE
  $VIB   
          IVIB=   0 IATOM=   0 ICOORD=   0 E=      -62.0866211445
 -3.809325903E-05-2.844997725E-05 8.095656854E-06-5.225330553E-05-3.155729053E-05
  5.687062223E-05-7.959082440E-05 7.353882035E-05 5.070981820E-05 8.374696105E-05
  7.254888435E-06-1.537720313E-04-1.177721313E-05-7.090426635E-05-2.956020083E-05
  3.287226965E-05-6.586276891E-06 3.646766856E-05-2.546770171E-05 1.323712715E-05
  6.849697732E-06 3.358591220E-05 5.987101795E-06 2.155778370E-05 1.944029981E-05
  2.082454843E-05 1.407368489E-05 3.150370484E-05 1.420166401E-05-7.397080231E-06
 -1.347906479E-04-2.493119455E-04 3.319403007E-04 1.268443483E-04 1.829098164E-04
 -3.878217099E-04 1.397945591E-05 6.885579001E-05 5.198578940E-05
 -3.559845683E-01 3.418344866E+00 7.165686379E-01
 ......END OF GEOMETRY SEARCH......
 STEP CPU TIME =     0.00 TOTAL CPU TIME =          0.2 (      0.0 MIN)
 TOTAL WALL CLOCK TIME=          0.2 SECONDS, CPU UTILIZATION IS   100.00%


     *********************************************************
     THE HESSIAN WILL NOW BE COMPUTED AT THE STATIONARY POINT.
     *********************************************************

     ---------------------------------
     HESSIAN MATRIX CONTROL PARAMETERS
     ---------------------------------
     METHOD=SEMINUM    NVIB  =       2   VIBSIZ= 0.01000
     RDHESS=       F   PURIFY=       F   PRTIFC=       F
     VIBANL=       F   DECOMP=       F   PROJCT=       F
     SCLFAC= 1.00000   PRTSCN=       F   NPRT  =       0
     PULCOR=       F   NPUN  =       0   REDOVB=       T
     HSSTYP=GENERAL 

 THE VIB 0 GEOMETRY GRADIENT IS

 UNITS ARE HARTREE/BOHR    E'X               E'Y               E'Z 
    1 CL              -0.000038093      -0.000028450       0.000008096
    2 C               -0.000052253      -0.000031557       0.000056871
    3 C               -0.000079591       0.000073539       0.000050710
    4 O                0.000083747       0.000007255      -0.000153772
    5 H               -0.000011777      -0.000070904      -0.000029560
    6 H                0.000032872      -0.000006586       0.000036468
    7 H               -0.000025468       0.000013237       0.000006850
    8 O                0.000033586       0.000005987       0.000021558
    9 H                0.000019440       0.000020825       0.000014074
   10 H                0.000031504       0.000014202      -0.000007397
   11 O               -0.000134791      -0.000249312       0.000331940
   12 H                0.000126844       0.000182910      -0.000387822
   13 H                0.000013979       0.000068856       0.000051986
  $VIB   
          IVIB=   0 IATOM=   0 ICOORD=   0 E=      -62.0866211445
 -3.809325903E-05-2.844997725E-05 8.095656854E-06-5.225330553E-05-3.155729053E-05
  5.687062223E-05-7.959082440E-05 7.353882035E-05 5.070981820E-05 8.374696105E-05
  7.254888435E-06-1.537720313E-04-1.177721313E-05-7.090426635E-05-2.956020083E-05
  3.287226965E-05-6.586276891E-06 3.646766856E-05-2.546770171E-05 1.323712715E-05
  6.849697732E-06 3.358591220E-05 5.987101795E-06 2.155778370E-05 1.944029981E-05
  2.082454843E-05 1.407368489E-05 3.150370484E-05 1.420166401E-05-7.397080231E-06
 -1.347906479E-04-2.493119455E-04 3.319403007E-04 1.268443483E-04 1.829098164E-04
 -3.878217099E-04 1.397945591E-05 6.885579001E-05 5.198578940E-05
 -3.559845683E-01 3.418344866E+00 7.165686379E-01
1   ATOM  1
                                        -------------------
   COORD  1                             NUCLEAR COORDINATES
                                        -------------------
     VIB  1

                       ATOM             X              Y              Z

                 1  CL               2.890774       0.521130       1.761640
                 2  C                5.308278      -0.128388      -0.392496
                 3  C                5.534573       1.894072      -2.363140
                 4  O                6.680673       1.514710      -4.359031
                 5  H                4.890403      -2.008004      -1.264775
                 6  H                7.113080      -0.249671       0.708326
                 7  H                4.647970       3.750256      -1.926160
                 8  O                8.522985      -2.939601      -7.958883
                 9  H                7.915684      -1.508058      -7.010373
                10  H                7.863622      -2.652344      -9.631102
                11  O                5.916392       0.881425      -9.768107
                12  H                6.652308       1.565260     -11.285217
                13  H                6.239441       2.166117      -8.517505

 MOPAC ONE- AND TWO-ELECTRON INTEGRALS REQUIRE      2933 WORDS.
 ...... END OF ONE- AND TWO-ELECTRON INTEGRALS......
 STEP CPU TIME =     0.00 TOTAL CPU TIME =          0.2 (      0.0 MIN)
 TOTAL WALL CLOCK TIME=          0.2 SECONDS, CPU UTILIZATION IS   100.00%
 ...... END OF ONE-ELECTRON INTEGRALS ......
 STEP CPU TIME =     0.00 TOTAL CPU TIME =          0.2 (      0.0 MIN)
 TOTAL WALL CLOCK TIME=          0.2 SECONDS, CPU UTILIZATION IS   100.00%

     ----------------------------
     INPUT FOR TESSERA DEFINITION
     ----------------------------
     NTSALL  =        60     MTHALL  =         4
     MTHAUT  =         0     AUTFRE  =    2.0000
     NTSFRZ  =        60     KEEPSM  =         0
     AREAKP  =   10.0000     BONDRY  =    1.0000
     AREATL  =    0.0100

     SPHERE     INITS       METHOD
          1        60       FIXPVA
          2        60       FIXPVA
          3        60       FIXPVA
          4        60       FIXPVA
          5        60       FIXPVA
          6        60       FIXPVA
          7        60       FIXPVA
          8        60       FIXPVA
          9        60       FIXPVA
         10        60       FIXPVA
         11        60       FIXPVA
         12        60       FIXPVA
         13        60       FIXPVA

     ------------------------------
      FIXPVA TESSELLATION FOR PCM
         PEIFENG SU AND HUI LI
     UNIVERSITY OF NEBRASKA-LINCOLN
     ------------------------------


     INPUT FOR CAVITY DEFINITION 
     ---------------------------
   ATOM               COORDINATES                RADIUS       EPS
      1      1.5297      0.2758      0.9322      1.8100     78.3900
      2      2.8090     -0.0679     -0.2077      1.7000     78.3900
      3      2.9288      1.0023     -1.2505      1.7000     78.3900
      4      3.5353      0.8015     -2.3067      1.5000     78.3900
      5      2.5879     -1.0626     -0.6693      1.2000     78.3900
      6      3.7641     -0.1321      0.3748      1.2000     78.3900
      7      2.4596      1.9845     -1.0193      1.2000     78.3900
      8      4.5102     -1.5556     -4.2117      1.5000     78.3900
      9      4.1888     -0.7980     -3.7097      1.2000     78.3900
     10      4.1612     -1.4036     -5.0966      1.2000     78.3900
     11      3.1308      0.4664     -5.1691      1.5000     78.3900
     12      3.5202      0.8283     -5.9719      1.2000     78.3900
     13      3.3018      1.1463     -4.5073      1.2000     78.3900

 MEMORY USED TO GENERATE CAVITY=    262582


 TOTAL NUMBER OF SPHERES=    13
 SPHERE           CENTER  (X,Y,Z) (A)               RADIUS (A)      AREA(A*A)
     1   1.529731772   0.275770000   0.932220000   2.172000000  38.461114735
     2   2.809020000  -0.067940000  -0.207700000   2.040000000   3.644548665
     3   2.928770000   1.002300000  -1.250520000   2.040000000  12.181771764
     4   3.535260000   0.801550000  -2.306700000   1.800000000   8.978195913
     5   2.587890000  -1.062590000  -0.669290000   1.440000000   7.106726143
     6   3.764080000  -0.132120000   0.374830000   1.440000000   8.265737728
     7   2.459600000   1.984550000  -1.019280000   1.440000000   7.032003072
     8   4.510170000  -1.555570000  -4.211660000   1.800000000  20.269614417
     9   4.188800000  -0.798030000  -3.709730000   1.440000000   0.594081452
    10   4.161250000  -1.403560000  -5.096560000   1.440000000   4.865725829
    11   3.130820000   0.466430000  -5.169060000   1.800000000  12.439258795
    12   3.520250000   0.828300000  -5.971880000   1.440000000   9.845727228
    13   3.301770000   1.146260000  -4.507270000   1.440000000   4.778707327

 TOTAL NUMBER OF TESSERAE=     271
 SURFACE AREA=   138.46321307(A**2)    CAVITY VOLUME=    119.35615824 (A**3)
 STEP CPU TIME =     0.00 TOTAL CPU TIME =          0.2 (      0.0 MIN)
 TOTAL WALL CLOCK TIME=          0.2 SECONDS, CPU UTILIZATION IS   100.00%

          THE SOLUTE IS ENCLOSED IN ONE CAVITY
 DONE CHECKING SEPARATION.
 STEP CPU TIME =     0.00 TOTAL CPU TIME =          0.2 (      0.0 MIN)
 TOTAL WALL CLOCK TIME=          0.2 SECONDS, CPU UTILIZATION IS   100.00%
 
 ..... DONE SETTING UP PCM CALCULATION .....
 STEP CPU TIME =     0.00 TOTAL CPU TIME =          0.2 (      0.0 MIN)
 TOTAL WALL CLOCK TIME=          0.2 SECONDS, CPU UTILIZATION IS   100.00%

          --------------------------
               R-AM1 SCF CALCULATION
          --------------------------
     DENSITY MATRIX CONV=  1.00E-05

 ITER EX DEM     TOTAL ENERGY        E CHANGE  DENSITY CHANGE    DIIS ERROR
   1  0  0      -62.0866095988   -62.0866095988   0.001154408   0.000000000
   2  1  0      -62.0866129539    -0.0000033552   0.000627628   0.000000000
   3  2  0      -62.0866134678    -0.0000005139   0.000339036   0.000000000
   4  3  0      -62.0866135841    -0.0000001163   0.000185480   0.000000000
   5  4  0      -62.0866136158    -0.0000000317   0.000103136   0.000000000
   6  5  0      -62.0866136253    -0.0000000095   0.000058237   0.000000000
   7  6  0      -62.0866136284    -0.0000000031   0.000033325   0.000000000
   8  7  0      -62.0866136294    -0.0000000010   0.000019283   0.000000000
   9  8  0      -62.0866136297    -0.0000000004   0.000011261   0.000000000
  10  9  0      -62.0866136299    -0.0000000001   0.000006625   0.000000000

          -----------------
          DENSITY CONVERGED
          -----------------
     TIME TO FORM FOCK OPERATORS=       0.1 SECONDS (       0.0 SEC/ITER)
     TIME TO SOLVE SCF EQUATIONS=       0.0 SECONDS (       0.0 SEC/ITER)

 FINAL R-AM1 ENERGY IS      -62.0866136299 AFTER  10 ITERATIONS

 HEAT OF FORMATION IS      -182.98371 KCAL/MOL
 
  
   PCM ASC=      0.0393954971
   GCAVP  =      0.0000000000
   GDISP  =      0.0000000000
   GREP   =      0.0000000000
 ...... END OF RHF CALCULATION ......
 STEP CPU TIME =     0.10 TOTAL CPU TIME =          0.3 (      0.0 MIN)
 TOTAL WALL CLOCK TIME=          0.3 SECONDS, CPU UTILIZATION IS   100.00%
 
 .... DONE WITH PCM CONTRIBUTION TO GRADIENT ....
 STEP CPU TIME =     0.01 TOTAL CPU TIME =          0.3 (      0.0 MIN)
 TOTAL WALL CLOCK TIME=          0.3 SECONDS, CPU UTILIZATION IS   100.00%
 STEP CPU TIME =     0.00 TOTAL CPU TIME =          0.3 (      0.0 MIN)
 TOTAL WALL CLOCK TIME=          0.3 SECONDS, CPU UTILIZATION IS   100.00%

 UNITS ARE HARTREE/BOHR    E'X               E'Y               E'Z 
    1 CL               0.001545526      -0.000362869      -0.001240693
    2 C               -0.001171173       0.000203337       0.000798951
    3 C               -0.000213447       0.000075775       0.000241664
    4 O                0.000085625      -0.000015837      -0.000129627
    5 H               -0.000067716      -0.000023339       0.000069238
    6 H               -0.000245369       0.000073969       0.000226447
    7 H               -0.000024673       0.000005706       0.000010465
    8 O                0.000033580       0.000006259       0.000022037
    9 H                0.000020198       0.000019961       0.000013470
   10 H                0.000031460       0.000014091      -0.000007567
   11 O               -0.000134579      -0.000249269       0.000332719
   12 H                0.000126843       0.000182869      -0.000387975
   13 H                0.000013725       0.000069346       0.000050871
  $VIB   
          IVIB=   1 IATOM=   1 ICOORD=   1 E=      -62.0866136299
  1.545526318E-03-3.628685722E-04-1.240692549E-03-1.171173259E-03 2.033374689E-04
  7.989507460E-04-2.134473697E-04 7.577473938E-05 2.416635445E-04 8.562544280E-05
 -1.583674915E-05-1.296267385E-04-6.771553175E-05-2.333865571E-05 6.923783443E-05
 -2.453690972E-04 7.396878437E-05 2.264470108E-04-2.467330981E-05 5.705745856E-06
  1.046464591E-05 3.357973467E-05 6.258709702E-06 2.203715076E-05 2.019798355E-05
  1.996117748E-05 1.347024594E-05 3.145970215E-05 1.409106941E-05-7.566764230E-06
 -1.345785560E-04-2.492690368E-04 3.327185323E-04 1.268433560E-04 1.828692763E-04
 -3.879746402E-04 1.372458607E-05 6.934604257E-05 5.087098087E-05
 -3.569931706E-01 3.417975929E+00 7.151395780E-01
1   ATOM  1
                                        -------------------
   COORD  2                             NUCLEAR COORDINATES
                                        -------------------
     VIB  1

                       ATOM             X              Y              Z

                 1  CL               2.880774       0.531130       1.761640
                 2  C                5.308278      -0.128388      -0.392496
                 3  C                5.534573       1.894072      -2.363140
                 4  O                6.680673       1.514710      -4.359031
                 5  H                4.890403      -2.008004      -1.264775
                 6  H                7.113080      -0.249671       0.708326
                 7  H                4.647970       3.750256      -1.926160
                 8  O                8.522985      -2.939601      -7.958883
                 9  H                7.915684      -1.508058      -7.010373
                10  H                7.863622      -2.652344      -9.631102
                11  O                5.916392       0.881425      -9.768107
                12  H                6.652308       1.565260     -11.285217
                13  H                6.239441       2.166117      -8.517505

 MOPAC ONE- AND TWO-ELECTRON INTEGRALS REQUIRE      2933 WORDS.
 ...... END OF ONE- AND TWO-ELECTRON INTEGRALS......
 STEP CPU TIME =     0.00 TOTAL CPU TIME =          0.3 (      0.0 MIN)
 TOTAL WALL CLOCK TIME=          0.3 SECONDS, CPU UTILIZATION IS   100.00%
 ...... END OF ONE-ELECTRON INTEGRALS ......
 STEP CPU TIME =     0.00 TOTAL CPU TIME =          0.3 (      0.0 MIN)
 TOTAL WALL CLOCK TIME=          0.3 SECONDS, CPU UTILIZATION IS   100.00%

     ----------------------------
     INPUT FOR TESSERA DEFINITION
     ----------------------------
     NTSALL  =        60     MTHALL  =         4
     MTHAUT  =         0     AUTFRE  =    2.0000
     NTSFRZ  =        60     KEEPSM  =         0
     AREAKP  =   10.0000     BONDRY  =    1.0000
     AREATL  =    0.0100

     SPHERE     INITS       METHOD
          1        60       FIXPVA
          2        60       FIXPVA
          3        60       FIXPVA
          4        60       FIXPVA
          5        60       FIXPVA
          6        60       FIXPVA
          7        60       FIXPVA
          8        60       FIXPVA
          9        60       FIXPVA
         10        60       FIXPVA
         11        60       FIXPVA
         12        60       FIXPVA
         13        60       FIXPVA

     ------------------------------
      FIXPVA TESSELLATION FOR PCM
         PEIFENG SU AND HUI LI
     UNIVERSITY OF NEBRASKA-LINCOLN
     ------------------------------


     INPUT FOR CAVITY DEFINITION 
     ---------------------------
   ATOM               COORDINATES                RADIUS       EPS
      1      1.5244      0.2811      0.9322      1.8100     78.3900
      2      2.8090     -0.0679     -0.2077      1.7000     78.3900
      3      2.9288      1.0023     -1.2505      1.7000     78.3900
      4      3.5353      0.8015     -2.3067      1.5000     78.3900
      5      2.5879     -1.0626     -0.6693      1.2000     78.3900
      6      3.7641     -0.1321      0.3748      1.2000     78.3900
      7      2.4596      1.9845     -1.0193      1.2000     78.3900
      8      4.5102     -1.5556     -4.2117      1.5000     78.3900
      9      4.1888     -0.7980     -3.7097      1.2000     78.3900
     10      4.1612     -1.4036     -5.0966      1.2000     78.3900
     11      3.1308      0.4664     -5.1691      1.5000     78.3900
     12      3.5202      0.8283     -5.9719      1.2000     78.3900
     13      3.3018      1.1463     -4.5073      1.2000     78.3900

 MEMORY USED TO GENERATE CAVITY=    262582


 TOTAL NUMBER OF SPHERES=    13
 SPHERE           CENTER  (X,Y,Z) (A)               RADIUS (A)      AREA(A*A)
     1   1.524440000   0.281061772   0.932220000   2.172000000  38.474840390
     2   2.809020000  -0.067940000  -0.207700000   2.040000000   3.679056418
     3   2.928770000   1.002300000  -1.250520000   2.040000000  12.181771764
     4   3.535260000   0.801550000  -2.306700000   1.800000000   8.978195913
     5   2.587890000  -1.062590000  -0.669290000   1.440000000   7.118603072
     6   3.764080000  -0.132120000   0.374830000   1.440000000   8.266151128
     7   2.459600000   1.984550000  -1.019280000   1.440000000   7.022503548
     8   4.510170000  -1.555570000  -4.211660000   1.800000000  20.269614417
     9   4.188800000  -0.798030000  -3.709730000   1.440000000   0.594081452
    10   4.161250000  -1.403560000  -5.096560000   1.440000000   4.865725829
    11   3.130820000   0.466430000  -5.169060000   1.800000000  12.439258795
    12   3.520250000   0.828300000  -5.971880000   1.440000000   9.845727228
    13   3.301770000   1.146260000  -4.507270000   1.440000000   4.778707327

 TOTAL NUMBER OF TESSERAE=     272
 SURFACE AREA=   138.51423728(A**2)    CAVITY VOLUME=    119.39227403 (A**3)
 STEP CPU TIME =     0.00 TOTAL CPU TIME =          0.3 (      0.0 MIN)
 TOTAL WALL CLOCK TIME=          0.3 SECONDS, CPU UTILIZATION IS   100.00%

          THE SOLUTE IS ENCLOSED IN ONE CAVITY
 DONE CHECKING SEPARATION.
 STEP CPU TIME =     0.00 TOTAL CPU TIME =          0.3 (      0.0 MIN)
 TOTAL WALL CLOCK TIME=          0.3 SECONDS, CPU UTILIZATION IS   100.00%
 
 ..... DONE SETTING UP PCM CALCULATION .....
 STEP CPU TIME =     0.00 TOTAL CPU TIME =          0.3 (      0.0 MIN)
 TOTAL WALL CLOCK TIME=          0.3 SECONDS, CPU UTILIZATION IS   100.00%

          --------------------------
               R-AM1 SCF CALCULATION
          --------------------------
     DENSITY MATRIX CONV=  1.00E-05

 ITER EX DEM     TOTAL ENERGY        E CHANGE  DENSITY CHANGE    DIIS ERROR
   1  0  0      -62.0866159361   -62.0866159361   0.001036820   0.000000000
   2  1  0      -62.0866187492    -0.0000028131   0.000561450   0.000000000
   3  2  0      -62.0866194195    -0.0000006702   0.000313433   0.000000000
   4  3  0      -62.0866196080    -0.0000001886   0.000178492   0.000000000
   5  4  0      -62.0866196659    -0.0000000578   0.000103064   0.000000000
   6  5  0      -62.0866196847    -0.0000000188   0.000060107   0.000000000
   7  6  0      -62.0866196910    -0.0000000063   0.000035312   0.000000000
   8  7  0      -62.0866196931    -0.0000000022   0.000020859   0.000000000
   9  8  0      -62.0866196939    -0.0000000008   0.000012372   0.000000000
  10  9  0      -62.0866196942    -0.0000000003   0.000007361   0.000000000

          -----------------
          DENSITY CONVERGED
          -----------------
     TIME TO FORM FOCK OPERATORS=       0.1 SECONDS (       0.0 SEC/ITER)
     TIME TO SOLVE SCF EQUATIONS=       0.0 SECONDS (       0.0 SEC/ITER)

 FINAL R-AM1 ENERGY IS      -62.0866196942 AFTER  10 ITERATIONS

 HEAT OF FORMATION IS      -182.98751 KCAL/MOL
 
  
   PCM ASC=      0.0393994762
   GCAVP  =      0.0000000000
   GDISP  =      0.0000000000
   GREP   =      0.0000000000
 ...... END OF RHF CALCULATION ......
 STEP CPU TIME =     0.11 TOTAL CPU TIME =          0.4 (      0.0 MIN)
 TOTAL WALL CLOCK TIME=          0.4 SECONDS, CPU UTILIZATION IS   100.00%
 
 .... DONE WITH PCM CONTRIBUTION TO GRADIENT ....
 STEP CPU TIME =     0.01 TOTAL CPU TIME =          0.4 (      0.0 MIN)
 TOTAL WALL CLOCK TIME=          0.4 SECONDS, CPU UTILIZATION IS   100.00%
 STEP CPU TIME =     0.00 TOTAL CPU TIME =          0.4 (      0.0 MIN)
 TOTAL WALL CLOCK TIME=          0.4 SECONDS, CPU UTILIZATION IS   100.00%

 UNITS ARE HARTREE/BOHR    E'X               E'Y               E'Z 
    1 CL              -0.000370233       0.000320604       0.000269317
    2 C                0.000190038      -0.000374078      -0.000170151
    3 C               -0.000194949       0.000115375       0.000164861
    4 O                0.000081800      -0.000005033      -0.000121172
    5 H                0.000147730      -0.000121459      -0.000189677
    6 H                0.000083855       0.000020399       0.000005829
    7 H               -0.000028671       0.000000667       0.000016862
    8 O                0.000033478       0.000006071       0.000021600
    9 H                0.000019421       0.000020739       0.000014051
   10 H                0.000031531       0.000014165      -0.000007441
   11 O               -0.000134806      -0.000249197       0.000332123
   12 H                0.000126861       0.000182870      -0.000387862
   13 H                0.000013944       0.000068876       0.000051659
  $VIB   
          IVIB=   1 IATOM=   1 ICOORD=   2 E=      -62.0866196942
 -3.702329092E-04 3.206041394E-04 2.693167156E-04 1.900378890E-04-3.740779456E-04
 -1.701510789E-04-1.949487820E-04 1.153749091E-04 1.648613296E-04 8.180017642E-05
 -5.032973367E-06-1.211715754E-04 1.477303071E-04-1.214592279E-04-1.896768631E-04
  8.385490139E-05 2.039877828E-05 5.829211858E-06-2.867103740E-05 6.671530519E-07
  1.686226857E-05 3.347800867E-05 6.071061972E-06 2.159965587E-05 1.942066274E-05
  2.073944892E-05 1.405081597E-05 3.153094876E-05 1.416495748E-05-7.441115070E-06
 -1.348056354E-04-2.491968507E-04 3.321230430E-04 1.268610640E-04 1.828704406E-04
 -3.878616434E-04 1.394440583E-05 6.887610877E-05 5.165923545E-05
 -3.562146884E-01 3.415859917E+00 7.166065286E-01
1   ATOM  1
                                        -------------------
   COORD  3                             NUCLEAR COORDINATES
                                        -------------------
     VIB  1

                       ATOM             X              Y              Z

                 1  CL               2.880774       0.521130       1.771640
                 2  C                5.308278      -0.128388      -0.392496
                 3  C                5.534573       1.894072      -2.363140
                 4  O                6.680673       1.514710      -4.359031
                 5  H                4.890403      -2.008004      -1.264775
                 6  H                7.113080      -0.249671       0.708326
                 7  H                4.647970       3.750256      -1.926160
                 8  O                8.522985      -2.939601      -7.958883
                 9  H                7.915684      -1.508058      -7.010373
                10  H                7.863622      -2.652344      -9.631102
                11  O                5.916392       0.881425      -9.768107
                12  H                6.652308       1.565260     -11.285217
                13  H                6.239441       2.166117      -8.517505

 MOPAC ONE- AND TWO-ELECTRON INTEGRALS REQUIRE      2933 WORDS.
 ...... END OF ONE- AND TWO-ELECTRON INTEGRALS......
 STEP CPU TIME =     0.00 TOTAL CPU TIME =          0.4 (      0.0 MIN)
 TOTAL WALL CLOCK TIME=          0.4 SECONDS, CPU UTILIZATION IS   100.00%
 ...... END OF ONE-ELECTRON INTEGRALS ......
 STEP CPU TIME =     0.00 TOTAL CPU TIME =          0.4 (      0.0 MIN)
 TOTAL WALL CLOCK TIME=          0.4 SECONDS, CPU UTILIZATION IS   100.00%

     ----------------------------
     INPUT FOR TESSERA DEFINITION
     ----------------------------
     NTSALL  =        60     MTHALL  =         4
     MTHAUT  =         0     AUTFRE  =    2.0000
     NTSFRZ  =        60     KEEPSM  =         0
     AREAKP  =   10.0000     BONDRY  =    1.0000
     AREATL  =    0.0100

     SPHERE     INITS       METHOD
          1        60       FIXPVA
          2        60       FIXPVA
          3        60       FIXPVA
          4        60       FIXPVA
          5        60       FIXPVA
          6        60       FIXPVA
          7        60       FIXPVA
          8        60       FIXPVA
          9        60       FIXPVA
         10        60       FIXPVA
         11        60       FIXPVA
         12        60       FIXPVA
         13        60       FIXPVA

     ------------------------------
      FIXPVA TESSELLATION FOR PCM
         PEIFENG SU AND HUI LI
     UNIVERSITY OF NEBRASKA-LINCOLN
     ------------------------------


     INPUT FOR CAVITY DEFINITION 
     ---------------------------
   ATOM               COORDINATES                RADIUS       EPS
      1      1.5244      0.2758      0.9375      1.8100     78.3900
      2      2.8090     -0.0679     -0.2077      1.7000     78.3900
      3      2.9288      1.0023     -1.2505      1.7000     78.3900
      4      3.5353      0.8015     -2.3067      1.5000     78.3900
      5      2.5879     -1.0626     -0.6693      1.2000     78.3900
      6      3.7641     -0.1321      0.3748      1.2000     78.3900
      7      2.4596      1.9845     -1.0193      1.2000     78.3900
      8      4.5102     -1.5556     -4.2117      1.5000     78.3900
      9      4.1888     -0.7980     -3.7097      1.2000     78.3900
     10      4.1612     -1.4036     -5.0966      1.2000     78.3900
     11      3.1308      0.4664     -5.1691      1.5000     78.3900
     12      3.5202      0.8283     -5.9719      1.2000     78.3900
     13      3.3018      1.1463     -4.5073      1.2000     78.3900

 MEMORY USED TO GENERATE CAVITY=    262582


 TOTAL NUMBER OF SPHERES=    13
 SPHERE           CENTER  (X,Y,Z) (A)               RADIUS (A)      AREA(A*A)
     1   1.524440000   0.275770000   0.937511772   2.172000000  38.499344356
     2   2.809020000  -0.067940000  -0.207700000   2.040000000   3.656600080
     3   2.928770000   1.002300000  -1.250520000   2.040000000  12.181771764
     4   3.535260000   0.801550000  -2.306700000   1.800000000   8.978195913
     5   2.587890000  -1.062590000  -0.669290000   1.440000000   7.113743006
     6   3.764080000  -0.132120000   0.374830000   1.440000000   8.265672772
     7   2.459600000   1.984550000  -1.019280000   1.440000000   7.031059518
     8   4.510170000  -1.555570000  -4.211660000   1.800000000  20.269614417
     9   4.188800000  -0.798030000  -3.709730000   1.440000000   0.594081452
    10   4.161250000  -1.403560000  -5.096560000   1.440000000   4.865725829
    11   3.130820000   0.466430000  -5.169060000   1.800000000  12.439258795
    12   3.520250000   0.828300000  -5.971880000   1.440000000   9.845727228
    13   3.301770000   1.146260000  -4.507270000   1.440000000   4.778707327

 TOTAL NUMBER OF TESSERAE=     272
 SURFACE AREA=   138.51950246(A**2)    CAVITY VOLUME=    119.41030263 (A**3)
 STEP CPU TIME =     0.00 TOTAL CPU TIME =          0.4 (      0.0 MIN)
 TOTAL WALL CLOCK TIME=          0.4 SECONDS, CPU UTILIZATION IS   100.00%

          THE SOLUTE IS ENCLOSED IN ONE CAVITY
 DONE CHECKING SEPARATION.
 STEP CPU TIME =     0.00 TOTAL CPU TIME =          0.4 (      0.0 MIN)
 TOTAL WALL CLOCK TIME=          0.4 SECONDS, CPU UTILIZATION IS   100.00%
 
 ..... DONE SETTING UP PCM CALCULATION .....
 STEP CPU TIME =     0.00 TOTAL CPU TIME =          0.4 (      0.0 MIN)
 TOTAL WALL CLOCK TIME=          0.4 SECONDS, CPU UTILIZATION IS   100.00%

          --------------------------
               R-AM1 SCF CALCULATION
          --------------------------
     DENSITY MATRIX CONV=  1.00E-05

 ITER EX DEM     TOTAL ENERGY        E CHANGE  DENSITY CHANGE    DIIS ERROR
   1  0  0      -62.0866104440   -62.0866104440   0.001266084   0.000000000
   2  1  0      -62.0866136273    -0.0000031833   0.000689749   0.000000000
   3  2  0      -62.0866141604    -0.0000005331   0.000374772   0.000000000
   4  3  0      -62.0866142910    -0.0000001306   0.000206598   0.000000000
   5  4  0      -62.0866143286    -0.0000000376   0.000115832   0.000000000
   6  5  0      -62.0866143405    -0.0000000119   0.000065943   0.000000000
   7  6  0      -62.0866143445    -0.0000000040   0.000038023   0.000000000
   8  7  0      -62.0866143458    -0.0000000013   0.000022152   0.000000000
   9  8  0      -62.0866143463    -0.0000000005   0.000013012   0.000000000
  10  9  0      -62.0866143466    -0.0000000002   0.000007693   0.000000000

          -----------------
          DENSITY CONVERGED
          -----------------
     TIME TO FORM FOCK OPERATORS=       0.1 SECONDS (       0.0 SEC/ITER)
     TIME TO SOLVE SCF EQUATIONS=       0.0 SECONDS (       0.0 SEC/ITER)

 FINAL R-AM1 ENERGY IS      -62.0866143466 AFTER  10 ITERATIONS

 HEAT OF FORMATION IS      -182.98416 KCAL/MOL
 
  
   PCM ASC=      0.0394181401
   GCAVP  =      0.0000000000
   GDISP  =      0.0000000000
   GREP   =      0.0000000000
 ...... END OF RHF CALCULATION ......
 STEP CPU TIME =     0.12 TOTAL CPU TIME =          0.5 (      0.0 MIN)
 TOTAL WALL CLOCK TIME=          0.5 SECONDS, CPU UTILIZATION IS   100.00%
 
 .... DONE WITH PCM CONTRIBUTION TO GRADIENT ....
 STEP CPU TIME =     0.01 TOTAL CPU TIME =          0.5 (      0.0 MIN)
 TOTAL WALL CLOCK TIME=          0.5 SECONDS, CPU UTILIZATION IS   100.00%
 STEP CPU TIME =     0.00 TOTAL CPU TIME =          0.5 (      0.0 MIN)
 TOTAL WALL CLOCK TIME=          0.5 SECONDS, CPU UTILIZATION IS   100.00%

 UNITS ARE HARTREE/BOHR    E'X               E'Y               E'Z 
    1 CL              -0.001262243       0.000230745       0.001351216
    2 C                0.000676298      -0.000243520      -0.000824931
    3 C                0.000204410       0.000074505      -0.000225466
    4 O                0.000084387       0.000045841      -0.000201384
    5 H                0.000160753      -0.000160836      -0.000166298
    6 H                0.000075360      -0.000016196       0.000045007
    7 H               -0.000028945       0.000025836      -0.000003453
    8 O                0.000033464       0.000005873       0.000021047
    9 H                0.000018809       0.000021615       0.000014674
   10 H                0.000031588       0.000014246      -0.000007217
   11 O               -0.000135169      -0.000249137       0.000331051
   12 H                0.000126882       0.000182811      -0.000387657
   13 H                0.000014407       0.000068216       0.000053411
  $VIB   
          IVIB=   1 IATOM=   1 ICOORD=   3 E=      -62.0866143466
 -1.262243097E-03 2.307452579E-04 1.351216413E-03 6.762976480E-04-2.435197252E-04
 -8.249306630E-04 2.044096832E-04 7.450538384E-05-2.254664415E-04 8.438690435E-05
  4.584079636E-05-2.013843619E-04 1.607526452E-04-1.608360657E-04-1.662978427E-04
  7.536015881E-05-1.619615358E-05 4.500727202E-05-2.894482332E-05 2.583559863E-05
 -3.453172376E-06 3.346390849E-05 5.872741127E-06 2.104659853E-05 1.880937401E-05
  2.161536351E-05 1.467411715E-05 3.158801894E-05 1.424607050E-05-7.217088594E-06
 -1.351691093E-04-2.491366082E-04 3.310506739E-04 1.268816073E-04 1.828109786E-04
 -3.876567412E-04 1.440708123E-05 6.821636223E-05 5.341123709E-05
 -3.574805074E-01 3.418651940E+00 7.155639870E-01
1   ATOM  2
                                        -------------------
   COORD  1                             NUCLEAR COORDINATES
                                        -------------------
     VIB  1

                       ATOM             X              Y              Z

                 1  CL               2.880774       0.521130       1.761640
                 2  C                5.318278      -0.128388      -0.392496
                 3  C                5.534573       1.894072      -2.363140
                 4  O                6.680673       1.514710      -4.359031
                 5  H                4.890403      -2.008004      -1.264775
                 6  H                7.113080      -0.249671       0.708326
                 7  H                4.647970       3.750256      -1.926160
                 8  O                8.522985      -2.939601      -7.958883
                 9  H                7.915684      -1.508058      -7.010373
                10  H                7.863622      -2.652344      -9.631102
                11  O                5.916392       0.881425      -9.768107
                12  H                6.652308       1.565260     -11.285217
                13  H                6.239441       2.166117      -8.517505

 MOPAC ONE- AND TWO-ELECTRON INTEGRALS REQUIRE      2933 WORDS.
 ...... END OF ONE- AND TWO-ELECTRON INTEGRALS......
 STEP CPU TIME =     0.01 TOTAL CPU TIME =          0.5 (      0.0 MIN)
 TOTAL WALL CLOCK TIME=          0.5 SECONDS, CPU UTILIZATION IS   100.00%
 ...... END OF ONE-ELECTRON INTEGRALS ......
 STEP CPU TIME =     0.00 TOTAL CPU TIME =          0.5 (      0.0 MIN)
 TOTAL WALL CLOCK TIME=          0.5 SECONDS, CPU UTILIZATION IS   100.00%

     ----------------------------
     INPUT FOR TESSERA DEFINITION
     ----------------------------
     NTSALL  =        60     MTHALL  =         4
     MTHAUT  =         0     AUTFRE  =    2.0000
     NTSFRZ  =        60     KEEPSM  =         0
     AREAKP  =   10.0000     BONDRY  =    1.0000
     AREATL  =    0.0100

     SPHERE     INITS       METHOD
          1        60       FIXPVA
          2        60       FIXPVA
          3        60       FIXPVA
          4        60       FIXPVA
          5        60       FIXPVA
          6        60       FIXPVA
          7        60       FIXPVA
          8        60       FIXPVA
          9        60       FIXPVA
         10        60       FIXPVA
         11        60       FIXPVA
         12        60       FIXPVA
         13        60       FIXPVA

     ------------------------------
      FIXPVA TESSELLATION FOR PCM
         PEIFENG SU AND HUI LI
     UNIVERSITY OF NEBRASKA-LINCOLN
     ------------------------------


     INPUT FOR CAVITY DEFINITION 
     ---------------------------
   ATOM               COORDINATES                RADIUS       EPS
      1      1.5244      0.2758      0.9322      1.8100     78.3900
      2      2.8143     -0.0679     -0.2077      1.7000     78.3900
      3      2.9288      1.0023     -1.2505      1.7000     78.3900
      4      3.5353      0.8015     -2.3067      1.5000     78.3900
      5      2.5879     -1.0626     -0.6693      1.2000     78.3900
      6      3.7641     -0.1321      0.3748      1.2000     78.3900
      7      2.4596      1.9845     -1.0193      1.2000     78.3900
      8      4.5102     -1.5556     -4.2117      1.5000     78.3900
      9      4.1888     -0.7980     -3.7097      1.2000     78.3900
     10      4.1612     -1.4036     -5.0966      1.2000     78.3900
     11      3.1308      0.4664     -5.1691      1.5000     78.3900
     12      3.5202      0.8283     -5.9719      1.2000     78.3900
     13      3.3018      1.1463     -4.5073      1.2000     78.3900

 MEMORY USED TO GENERATE CAVITY=    262582


 TOTAL NUMBER OF SPHERES=    13
 SPHERE           CENTER  (X,Y,Z) (A)               RADIUS (A)      AREA(A*A)
     1   1.524440000   0.275770000   0.932220000   2.172000000  38.491341075
     2   2.814311772  -0.067940000  -0.207700000   2.040000000   3.623305017
     3   2.928770000   1.002300000  -1.250520000   2.040000000  12.181771764
     4   3.535260000   0.801550000  -2.306700000   1.800000000   8.976569146
     5   2.587890000  -1.062590000  -0.669290000   1.440000000   7.116360468
     6   3.764080000  -0.132120000   0.374830000   1.440000000   8.239549048
     7   2.459600000   1.984550000  -1.019280000   1.440000000   7.030764201
     8   4.510170000  -1.555570000  -4.211660000   1.800000000  20.269210479
     9   4.188800000  -0.798030000  -3.709730000   1.440000000   0.593724055
    10   4.161250000  -1.403560000  -5.096560000   1.440000000   4.865725829
    11   3.130820000   0.466430000  -5.169060000   1.800000000  12.439258795
    12   3.520250000   0.828300000  -5.971880000   1.440000000   9.845727228
    13   3.301770000   1.146260000  -4.507270000   1.440000000   4.778707327

 TOTAL NUMBER OF TESSERAE=     272
 SURFACE AREA=   138.45201443(A**2)    CAVITY VOLUME=    119.36400944 (A**3)
 STEP CPU TIME =     0.00 TOTAL CPU TIME =          0.5 (      0.0 MIN)
 TOTAL WALL CLOCK TIME=          0.5 SECONDS, CPU UTILIZATION IS   100.00%

          THE SOLUTE IS ENCLOSED IN ONE CAVITY
 DONE CHECKING SEPARATION.
 STEP CPU TIME =     0.00 TOTAL CPU TIME =          0.5 (      0.0 MIN)
 TOTAL WALL CLOCK TIME=          0.5 SECONDS, CPU UTILIZATION IS   100.00%
 
 ..... DONE SETTING UP PCM CALCULATION .....
 STEP CPU TIME =     0.00 TOTAL CPU TIME =          0.5 (      0.0 MIN)
 TOTAL WALL CLOCK TIME=          0.5 SECONDS, CPU UTILIZATION IS   100.00%

          --------------------------
               R-AM1 SCF CALCULATION
          --------------------------
     DENSITY MATRIX CONV=  1.00E-05

 ITER EX DEM     TOTAL ENERGY        E CHANGE  DENSITY CHANGE    DIIS ERROR
   1  0  0      -62.0865867034   -62.0865867034   0.001579880   0.000000000
   2  1  0      -62.0865983833    -0.0000116799   0.000750543   0.000000000
   3  2  0      -62.0865999939    -0.0000016107   0.000399253   0.000000000
   4  3  0      -62.0866003426    -0.0000003486   0.000215417   0.000000000
   5  0  0      -62.0866004474    -0.0000001048   0.000409844   0.000000000
   6  1  0      -62.0866005189    -0.0000000715   0.000016956   0.000000000
   7  2  0      -62.0866005196    -0.0000000007   0.000012300   0.000000000
   8  3  0      -62.0866005199    -0.0000000003   0.000008937   0.000000000

          -----------------
          DENSITY CONVERGED
          -----------------
     TIME TO FORM FOCK OPERATORS=       0.1 SECONDS (       0.0 SEC/ITER)
     TIME TO SOLVE SCF EQUATIONS=       0.0 SECONDS (       0.0 SEC/ITER)

 FINAL R-AM1 ENERGY IS      -62.0866005199 AFTER   8 ITERATIONS

 HEAT OF FORMATION IS      -182.97548 KCAL/MOL
 
  
   PCM ASC=      0.0394282483
   GCAVP  =      0.0000000000
   GDISP  =      0.0000000000
   GREP   =      0.0000000000
 ...... END OF RHF CALCULATION ......
 STEP CPU TIME =     0.08 TOTAL CPU TIME =          0.6 (      0.0 MIN)
 TOTAL WALL CLOCK TIME=          0.6 SECONDS, CPU UTILIZATION IS   100.00%
 
 .... DONE WITH PCM CONTRIBUTION TO GRADIENT ....
 STEP CPU TIME =     0.02 TOTAL CPU TIME =          0.6 (      0.0 MIN)
 TOTAL WALL CLOCK TIME=          0.6 SECONDS, CPU UTILIZATION IS   100.00%
 STEP CPU TIME =     0.00 TOTAL CPU TIME =          0.6 (      0.0 MIN)
 TOTAL WALL CLOCK TIME=          0.6 SECONDS, CPU UTILIZATION IS   100.00%

 UNITS ARE HARTREE/BOHR    E'X               E'Y               E'Z 
    1 CL              -0.001139000       0.000209716       0.000736011
    2 C                0.004182362       0.000255593       0.000381536
    3 C               -0.000799277      -0.000095360       0.000113625
    4 O                0.000146587      -0.000110359       0.000144500
    5 H               -0.000466600      -0.000540403      -0.000267071
    6 H               -0.002126270       0.000110121      -0.001142192
    7 H                0.000112648       0.000126246       0.000008700
    8 O                0.000033482       0.000005647       0.000020821
    9 H                0.000018289       0.000022299       0.000016038
   10 H                0.000031685       0.000014126      -0.000007094
   11 O               -0.000135250      -0.000248731       0.000332119
   12 H                0.000126978       0.000182977      -0.000387814
   13 H                0.000014367       0.000068128       0.000050823
  $VIB   
          IVIB=   1 IATOM=   2 ICOORD=   1 E=      -62.0866005199
 -1.139000354E-03 2.097155802E-04 7.360110678E-04 4.182361738E-03 2.555931547E-04
  3.815355132E-04-7.992774489E-04-9.535980941E-05 1.136254349E-04 1.465869580E-04
 -1.103591881E-04 1.444996946E-04-4.666002754E-04-5.404027574E-04-2.670709129E-04
 -2.126270420E-03 1.101207891E-04-1.142192491E-03 1.126482486E-04 1.262455804E-04
  8.699790105E-06 3.348240489E-05 5.647311528E-06 2.082125923E-05 1.828933238E-05
  2.229930570E-05 1.603753863E-05 3.168453870E-05 1.412551022E-05-7.094076490E-06
 -1.352497844E-04-2.487310412E-04 3.321189343E-04 1.269778439E-04 1.829772895E-04
 -3.878143239E-04 1.436721838E-05 6.812827473E-05 5.082257135E-05
 -3.632956542E-01 3.418789588E+00 7.193880004E-01
1   ATOM  2
                                        -------------------
   COORD  2                             NUCLEAR COORDINATES
                                        -------------------
     VIB  1

                       ATOM             X              Y              Z

                 1  CL               2.880774       0.521130       1.761640
                 2  C                5.308278      -0.118388      -0.392496
                 3  C                5.534573       1.894072      -2.363140
                 4  O                6.680673       1.514710      -4.359031
                 5  H                4.890403      -2.008004      -1.264775
                 6  H                7.113080      -0.249671       0.708326
                 7  H                4.647970       3.750256      -1.926160
                 8  O                8.522985      -2.939601      -7.958883
                 9  H                7.915684      -1.508058      -7.010373
                10  H                7.863622      -2.652344      -9.631102
                11  O                5.916392       0.881425      -9.768107
                12  H                6.652308       1.565260     -11.285217
                13  H                6.239441       2.166117      -8.517505

 MOPAC ONE- AND TWO-ELECTRON INTEGRALS REQUIRE      2933 WORDS.
 ...... END OF ONE- AND TWO-ELECTRON INTEGRALS......
 STEP CPU TIME =     0.00 TOTAL CPU TIME =          0.6 (      0.0 MIN)
 TOTAL WALL CLOCK TIME=          0.6 SECONDS, CPU UTILIZATION IS   100.00%
 ...... END OF ONE-ELECTRON INTEGRALS ......
 STEP CPU TIME =     0.00 TOTAL CPU TIME =          0.6 (      0.0 MIN)
 TOTAL WALL CLOCK TIME=          0.6 SECONDS, CPU UTILIZATION IS   100.00%

     ----------------------------
     INPUT FOR TESSERA DEFINITION
     ----------------------------
     NTSALL  =        60     MTHALL  =         4
     MTHAUT  =         0     AUTFRE  =    2.0000
     NTSFRZ  =        60     KEEPSM  =         0
     AREAKP  =   10.0000     BONDRY  =    1.0000
     AREATL  =    0.0100

     SPHERE     INITS       METHOD
          1        60       FIXPVA
          2        60       FIXPVA
          3        60       FIXPVA
          4        60       FIXPVA
          5        60       FIXPVA
          6        60       FIXPVA
          7        60       FIXPVA
          8        60       FIXPVA
          9        60       FIXPVA
         10        60       FIXPVA
         11        60       FIXPVA
         12        60       FIXPVA
         13        60       FIXPVA

     ------------------------------
      FIXPVA TESSELLATION FOR PCM
         PEIFENG SU AND HUI LI
     UNIVERSITY OF NEBRASKA-LINCOLN
     ------------------------------


     INPUT FOR CAVITY DEFINITION 
     ---------------------------
   ATOM               COORDINATES                RADIUS       EPS
      1      1.5244      0.2758      0.9322      1.8100     78.3900
      2      2.8090     -0.0626     -0.2077      1.7000     78.3900
      3      2.9288      1.0023     -1.2505      1.7000     78.3900
      4      3.5353      0.8015     -2.3067      1.5000     78.3900
      5      2.5879     -1.0626     -0.6693      1.2000     78.3900
      6      3.7641     -0.1321      0.3748      1.2000     78.3900
      7      2.4596      1.9845     -1.0193      1.2000     78.3900
      8      4.5102     -1.5556     -4.2117      1.5000     78.3900
      9      4.1888     -0.7980     -3.7097      1.2000     78.3900
     10      4.1612     -1.4036     -5.0966      1.2000     78.3900
     11      3.1308      0.4664     -5.1691      1.5000     78.3900
     12      3.5202      0.8283     -5.9719      1.2000     78.3900
     13      3.3018      1.1463     -4.5073      1.2000     78.3900

 MEMORY USED TO GENERATE CAVITY=    262582


 TOTAL NUMBER OF SPHERES=    13
 SPHERE           CENTER  (X,Y,Z) (A)               RADIUS (A)      AREA(A*A)
     1   1.524440000   0.275770000   0.932220000   2.172000000  38.498789024
     2   2.809020000  -0.062648228  -0.207700000   2.040000000   3.634101966
     3   2.928770000   1.002300000  -1.250520000   2.040000000  12.181771764
     4   3.535260000   0.801550000  -2.306700000   1.800000000   8.979954731
     5   2.587890000  -1.062590000  -0.669290000   1.440000000   7.112356002
     6   3.764080000  -0.132120000   0.374830000   1.440000000   8.257612628
     7   2.459600000   1.984550000  -1.019280000   1.440000000   7.030574880
     8   4.510170000  -1.555570000  -4.211660000   1.800000000  20.270407036
     9   4.188800000  -0.798030000  -3.709730000   1.440000000   0.594239175
    10   4.161250000  -1.403560000  -5.096560000   1.440000000   4.865725829
    11   3.130820000   0.466430000  -5.169060000   1.800000000  12.439258795
    12   3.520250000   0.828300000  -5.971880000   1.440000000   9.845727228
    13   3.301770000   1.146260000  -4.507270000   1.440000000   4.778707327

 TOTAL NUMBER OF TESSERAE=     272
 SURFACE AREA=   138.48922639(A**2)    CAVITY VOLUME=    119.36219679 (A**3)
 STEP CPU TIME =     0.00 TOTAL CPU TIME =          0.6 (      0.0 MIN)
 TOTAL WALL CLOCK TIME=          0.6 SECONDS, CPU UTILIZATION IS   100.00%

          THE SOLUTE IS ENCLOSED IN ONE CAVITY
 DONE CHECKING SEPARATION.
 STEP CPU TIME =     0.00 TOTAL CPU TIME =          0.6 (      0.0 MIN)
 TOTAL WALL CLOCK TIME=          0.6 SECONDS, CPU UTILIZATION IS   100.00%
 
 ..... DONE SETTING UP PCM CALCULATION .....
 STEP CPU TIME =     0.00 TOTAL CPU TIME =          0.6 (      0.0 MIN)
 TOTAL WALL CLOCK TIME=          0.6 SECONDS, CPU UTILIZATION IS   100.00%

          --------------------------
               R-AM1 SCF CALCULATION
          --------------------------
     DENSITY MATRIX CONV=  1.00E-05

 ITER EX DEM     TOTAL ENERGY        E CHANGE  DENSITY CHANGE    DIIS ERROR
   1  0  0      -62.0865824343   -62.0865824343   0.001658907   0.000000000
   2  1  0      -62.0865940746    -0.0000116402   0.000602712   0.000000000
   3  2  0      -62.0865957568    -0.0000016823   0.000325999   0.000000000
   4  3  0      -62.0865961088    -0.0000003520   0.000189782   0.000000000
   5  0  0      -62.0865962019    -0.0000000931   0.000270409   0.000000000
   6  1  0      -62.0865962459    -0.0000000440   0.000014020   0.000000000
   7  2  0      -62.0865962463    -0.0000000004   0.000009977   0.000000000
   8  3  0      -62.0865962464    -0.0000000001   0.000007140   0.000000000

          -----------------
          DENSITY CONVERGED
          -----------------
     TIME TO FORM FOCK OPERATORS=       0.1 SECONDS (       0.0 SEC/ITER)
     TIME TO SOLVE SCF EQUATIONS=       0.0 SECONDS (       0.0 SEC/ITER)

 FINAL R-AM1 ENERGY IS      -62.0865962464 AFTER   8 ITERATIONS

 HEAT OF FORMATION IS      -182.97280 KCAL/MOL
 
  
   PCM ASC=      0.0394023463
   GCAVP  =      0.0000000000
   GDISP  =      0.0000000000
   GREP   =      0.0000000000
 ...... END OF RHF CALCULATION ......
 STEP CPU TIME =     0.08 TOTAL CPU TIME =          0.7 (      0.0 MIN)
 TOTAL WALL CLOCK TIME=          0.7 SECONDS, CPU UTILIZATION IS   100.00%
 
 .... DONE WITH PCM CONTRIBUTION TO GRADIENT ....
 STEP CPU TIME =     0.01 TOTAL CPU TIME =          0.7 (      0.0 MIN)
 TOTAL WALL CLOCK TIME=          0.7 SECONDS, CPU UTILIZATION IS   100.00%
 STEP CPU TIME =     0.00 TOTAL CPU TIME =          0.7 (      0.0 MIN)
 TOTAL WALL CLOCK TIME=          0.7 SECONDS, CPU UTILIZATION IS   100.00%

 UNITS ARE HARTREE/BOHR    E'X               E'Y               E'Z 
    1 CL               0.000191987      -0.000366459      -0.000206559
    2 C                0.000227341       0.005007921      -0.000325393
    3 C               -0.000136323      -0.001761119       0.000958961
    4 O               -0.000029569       0.000058988       0.000125610
    5 H               -0.000485725      -0.002376583      -0.000919695
    6 H                0.000110248      -0.000369418       0.000115320
    7 H                0.000031340      -0.000236889       0.000228237
    8 O                0.000033463       0.000006130       0.000021724
    9 H                0.000019701       0.000020234       0.000013657
   10 H                0.000031525       0.000014159      -0.000007501
   11 O               -0.000134665      -0.000249310       0.000332447
   12 H                0.000126810       0.000182847      -0.000387930
   13 H                0.000013868       0.000069499       0.000051122
  $VIB   
          IVIB=   1 IATOM=   2 ICOORD=   2 E=      -62.0865962464
  1.919872043E-04-3.664592230E-04-2.065587302E-04 2.273412681E-04 5.007920818E-03
 -3.253929936E-04-1.363230346E-04-1.761119241E-03 9.589612491E-04-2.956943514E-05
  5.898844597E-05 1.256100339E-04-4.857249119E-04-2.376583030E-03-9.196953617E-04
  1.102476082E-04-3.694180997E-04 1.153196929E-04 3.133953800E-05-2.368889434E-04
  2.282365062E-04 3.346316970E-05 6.130447956E-06 2.172419317E-05 1.970084368E-05
  2.023377469E-05 1.365723799E-05 3.152490921E-05 1.415868784E-05-7.501260192E-06
 -1.346652457E-04-2.493104123E-04 3.324474550E-04 1.268101928E-04 1.828474842E-04
 -3.879300556E-04 1.386789331E-05 6.949929073E-05 5.112203316E-05
 -3.559136092E-01 3.412585911E+00 7.186200179E-01
1   ATOM  2
                                        -------------------
   COORD  3                             NUCLEAR COORDINATES
                                        -------------------
     VIB  1

                       ATOM             X              Y              Z

                 1  CL               2.880774       0.521130       1.761640
                 2  C                5.308278      -0.128388      -0.382496
                 3  C                5.534573       1.894072      -2.363140
                 4  O                6.680673       1.514710      -4.359031
                 5  H                4.890403      -2.008004      -1.264775
                 6  H                7.113080      -0.249671       0.708326
                 7  H                4.647970       3.750256      -1.926160
                 8  O                8.522985      -2.939601      -7.958883
                 9  H                7.915684      -1.508058      -7.010373
                10  H                7.863622      -2.652344      -9.631102
                11  O                5.916392       0.881425      -9.768107
                12  H                6.652308       1.565260     -11.285217
                13  H                6.239441       2.166117      -8.517505

 MOPAC ONE- AND TWO-ELECTRON INTEGRALS REQUIRE      2933 WORDS.
 ...... END OF ONE- AND TWO-ELECTRON INTEGRALS......
 STEP CPU TIME =     0.00 TOTAL CPU TIME =          0.7 (      0.0 MIN)
 TOTAL WALL CLOCK TIME=          0.7 SECONDS, CPU UTILIZATION IS   100.00%
 ...... END OF ONE-ELECTRON INTEGRALS ......
 STEP CPU TIME =     0.00 TOTAL CPU TIME =          0.7 (      0.0 MIN)
 TOTAL WALL CLOCK TIME=          0.7 SECONDS, CPU UTILIZATION IS   100.00%

     ----------------------------
     INPUT FOR TESSERA DEFINITION
     ----------------------------
     NTSALL  =        60     MTHALL  =         4
     MTHAUT  =         0     AUTFRE  =    2.0000
     NTSFRZ  =        60     KEEPSM  =         0
     AREAKP  =   10.0000     BONDRY  =    1.0000
     AREATL  =    0.0100

     SPHERE     INITS       METHOD
          1        60       FIXPVA
          2        60       FIXPVA
          3        60       FIXPVA
          4        60       FIXPVA
          5        60       FIXPVA
          6        60       FIXPVA
          7        60       FIXPVA
          8        60       FIXPVA
          9        60       FIXPVA
         10        60       FIXPVA
         11        60       FIXPVA
         12        60       FIXPVA
         13        60       FIXPVA

     ------------------------------
      FIXPVA TESSELLATION FOR PCM
         PEIFENG SU AND HUI LI
     UNIVERSITY OF NEBRASKA-LINCOLN
     ------------------------------


     INPUT FOR CAVITY DEFINITION 
     ---------------------------
   ATOM               COORDINATES                RADIUS       EPS
      1      1.5244      0.2758      0.9322      1.8100     78.3900
      2      2.8090     -0.0679     -0.2024      1.7000     78.3900
      3      2.9288      1.0023     -1.2505      1.7000     78.3900
      4      3.5353      0.8015     -2.3067      1.5000     78.3900
      5      2.5879     -1.0626     -0.6693      1.2000     78.3900
      6      3.7641     -0.1321      0.3748      1.2000     78.3900
      7      2.4596      1.9845     -1.0193      1.2000     78.3900
      8      4.5102     -1.5556     -4.2117      1.5000     78.3900
      9      4.1888     -0.7980     -3.7097      1.2000     78.3900
     10      4.1612     -1.4036     -5.0966      1.2000     78.3900
     11      3.1308      0.4664     -5.1691      1.5000     78.3900
     12      3.5202      0.8283     -5.9719      1.2000     78.3900
     13      3.3018      1.1463     -4.5073      1.2000     78.3900

 MEMORY USED TO GENERATE CAVITY=    262582


 TOTAL NUMBER OF SPHERES=    13
 SPHERE           CENTER  (X,Y,Z) (A)               RADIUS (A)      AREA(A*A)
     1   1.524440000   0.275770000   0.932220000   2.172000000  38.484209715
     2   2.809020000  -0.067940000  -0.202408228   2.040000000   3.635571628
     3   2.928770000   1.002300000  -1.250520000   2.040000000  12.181771764
     4   3.535260000   0.801550000  -2.306700000   1.800000000   8.981573585
     5   2.587890000  -1.062590000  -0.669290000   1.440000000   7.115185163
     6   3.764080000  -0.132120000   0.374830000   1.440000000   8.267345807
     7   2.459600000   1.984550000  -1.019280000   1.440000000   7.030690477
     8   4.510170000  -1.555570000  -4.211660000   1.800000000  20.270295049
     9   4.188800000  -0.798030000  -3.709730000   1.440000000   0.594368359
    10   4.161250000  -1.403560000  -5.096560000   1.440000000   4.865725829
    11   3.130820000   0.466430000  -5.169060000   1.800000000  12.439258795
    12   3.520250000   0.828300000  -5.971880000   1.440000000   9.845727228
    13   3.301770000   1.146260000  -4.507270000   1.440000000   4.778707327

 TOTAL NUMBER OF TESSERAE=     272
 SURFACE AREA=   138.49043073(A**2)    CAVITY VOLUME=    119.38773495 (A**3)
 STEP CPU TIME =     0.00 TOTAL CPU TIME =          0.7 (      0.0 MIN)
 TOTAL WALL CLOCK TIME=          0.7 SECONDS, CPU UTILIZATION IS   100.00%

          THE SOLUTE IS ENCLOSED IN ONE CAVITY
 DONE CHECKING SEPARATION.
 STEP CPU TIME =     0.00 TOTAL CPU TIME =          0.7 (      0.0 MIN)
 TOTAL WALL CLOCK TIME=          0.7 SECONDS, CPU UTILIZATION IS   100.00%
 
 ..... DONE SETTING UP PCM CALCULATION .....
 STEP CPU TIME =     0.00 TOTAL CPU TIME =          0.7 (      0.0 MIN)
 TOTAL WALL CLOCK TIME=          0.7 SECONDS, CPU UTILIZATION IS   100.00%

          --------------------------
               R-AM1 SCF CALCULATION
          --------------------------
     DENSITY MATRIX CONV=  1.00E-05

 ITER EX DEM     TOTAL ENERGY        E CHANGE  DENSITY CHANGE    DIIS ERROR
   1  0  0      -62.0865821741   -62.0865821741   0.001561531   0.000000000
   2  1  0      -62.0865944788    -0.0000123047   0.000774268   0.000000000
   3  2  0      -62.0865960323    -0.0000015535   0.000415672   0.000000000
   4  3  0      -62.0865963277    -0.0000002954   0.000227739   0.000000000
   5  0  0      -62.0865964032    -0.0000000756   0.000309407   0.000000000
   6  1  0      -62.0865964418    -0.0000000385   0.000018797   0.000000000
   7  2  0      -62.0865964423    -0.0000000006   0.000013034   0.000000000
   8  3  0      -62.0865964425    -0.0000000002   0.000009193   0.000000000

          -----------------
          DENSITY CONVERGED
          -----------------
     TIME TO FORM FOCK OPERATORS=       0.1 SECONDS (       0.0 SEC/ITER)
     TIME TO SOLVE SCF EQUATIONS=       0.0 SECONDS (       0.0 SEC/ITER)

 FINAL R-AM1 ENERGY IS      -62.0865964425 AFTER   8 ITERATIONS

 HEAT OF FORMATION IS      -182.97292 KCAL/MOL
 
  
   PCM ASC=      0.0393955927
   GCAVP  =      0.0000000000
   GDISP  =      0.0000000000
   GREP   =      0.0000000000
 ...... END OF RHF CALCULATION ......
 STEP CPU TIME =     0.08 TOTAL CPU TIME =          0.8 (      0.0 MIN)
 TOTAL WALL CLOCK TIME=          0.8 SECONDS, CPU UTILIZATION IS   100.00%
 
 .... DONE WITH PCM CONTRIBUTION TO GRADIENT ....
 STEP CPU TIME =     0.02 TOTAL CPU TIME =          0.8 (      0.0 MIN)
 TOTAL WALL CLOCK TIME=          0.8 SECONDS, CPU UTILIZATION IS   100.00%
 STEP CPU TIME =     0.00 TOTAL CPU TIME =          0.8 (      0.0 MIN)
 TOTAL WALL CLOCK TIME=          0.8 SECONDS, CPU UTILIZATION IS   100.00%

 UNITS ARE HARTREE/BOHR    E'X               E'Y               E'Z 
    1 CL               0.000700321      -0.000258288      -0.000884939
    2 C                0.000244294      -0.000354652       0.004879624
    3 C               -0.000145599       0.001079131      -0.001401202
    4 O                0.000407573       0.000320300      -0.000856982
    5 H               -0.000255061      -0.000997239      -0.000814809
    6 H               -0.001073087       0.000073424      -0.000984959
    7 H                0.000030705       0.000094116       0.000038791
    8 O                0.000033775       0.000005828       0.000020708
    9 H                0.000019282       0.000020835       0.000014460
   10 H                0.000031538       0.000014193      -0.000007202
   11 O               -0.000135074      -0.000249189       0.000331396
   12 H                0.000126891       0.000182853      -0.000387702
   13 H                0.000014441       0.000068686       0.000052816
  $VIB   
          IVIB=   1 IATOM=   2 ICOORD=   3 E=      -62.0865964425
  7.003214466E-04-2.582879316E-04-8.849387703E-04 2.442940990E-04-3.546516998E-04
  4.879624066E-03-1.455986117E-04 1.079131219E-03-1.401202411E-03 4.075727156E-04
  3.203004722E-04-8.569818645E-04-2.550609287E-04-9.972391927E-04-8.148094187E-04
 -1.073087101E-03 7.342410435E-05-9.849587366E-04 3.070506868E-05 9.411646625E-05
  3.879081421E-05 3.377472504E-05 5.827535004E-06 2.070822956E-05 1.928247642E-05
  2.083508811E-05 1.446047660E-05 3.153811341E-05 1.419342799E-05-7.202233287E-06
 -1.350738686E-04-2.491886302E-04 3.313958583E-04 1.268908190E-04 1.828529953E-04
 -3.877016369E-04 1.444104600E-05 6.868614596E-05 5.281562652E-05
 -3.528627834E-01 3.419873569E+00 7.077146756E-01
1   ATOM  3
                                        -------------------
   COORD  1                             NUCLEAR COORDINATES
                                        -------------------
     VIB  1

                       ATOM             X              Y              Z

                 1  CL               2.880774       0.521130       1.761640
                 2  C                5.308278      -0.128388      -0.392496
                 3  C                5.544573       1.894072      -2.363140
                 4  O                6.680673       1.514710      -4.359031
                 5  H                4.890403      -2.008004      -1.264775
                 6  H                7.113080      -0.249671       0.708326
                 7  H                4.647970       3.750256      -1.926160
                 8  O                8.522985      -2.939601      -7.958883
                 9  H                7.915684      -1.508058      -7.010373
                10  H                7.863622      -2.652344      -9.631102
                11  O                5.916392       0.881425      -9.768107
                12  H                6.652308       1.565260     -11.285217
                13  H                6.239441       2.166117      -8.517505

 MOPAC ONE- AND TWO-ELECTRON INTEGRALS REQUIRE      2933 WORDS.
 ...... END OF ONE- AND TWO-ELECTRON INTEGRALS......
 STEP CPU TIME =     0.00 TOTAL CPU TIME =          0.8 (      0.0 MIN)
 TOTAL WALL CLOCK TIME=          0.8 SECONDS, CPU UTILIZATION IS   100.00%
 ...... END OF ONE-ELECTRON INTEGRALS ......
 STEP CPU TIME =     0.00 TOTAL CPU TIME =          0.8 (      0.0 MIN)
 TOTAL WALL CLOCK TIME=          0.8 SECONDS, CPU UTILIZATION IS   100.00%

     ----------------------------
     INPUT FOR TESSERA DEFINITION
     ----------------------------
     NTSALL  =        60     MTHALL  =         4
     MTHAUT  =         0     AUTFRE  =    2.0000
     NTSFRZ  =        60     KEEPSM  =         0
     AREAKP  =   10.0000     BONDRY  =    1.0000
     AREATL  =    0.0100

     SPHERE     INITS       METHOD
          1        60       FIXPVA
          2        60       FIXPVA
          3        60       FIXPVA
          4        60       FIXPVA
          5        60       FIXPVA
          6        60       FIXPVA
          7        60       FIXPVA
          8        60       FIXPVA
          9        60       FIXPVA
         10        60       FIXPVA
         11        60       FIXPVA
         12        60       FIXPVA
         13        60       FIXPVA

     ------------------------------
      FIXPVA TESSELLATION FOR PCM
         PEIFENG SU AND HUI LI
     UNIVERSITY OF NEBRASKA-LINCOLN
     ------------------------------


     INPUT FOR CAVITY DEFINITION 
     ---------------------------
   ATOM               COORDINATES                RADIUS       EPS
      1      1.5244      0.2758      0.9322      1.8100     78.3900
      2      2.8090     -0.0679     -0.2077      1.7000     78.3900
      3      2.9341      1.0023     -1.2505      1.7000     78.3900
      4      3.5353      0.8015     -2.3067      1.5000     78.3900
      5      2.5879     -1.0626     -0.6693      1.2000     78.3900
      6      3.7641     -0.1321      0.3748      1.2000     78.3900
      7      2.4596      1.9845     -1.0193      1.2000     78.3900
      8      4.5102     -1.5556     -4.2117      1.5000     78.3900
      9      4.1888     -0.7980     -3.7097      1.2000     78.3900
     10      4.1612     -1.4036     -5.0966      1.2000     78.3900
     11      3.1308      0.4664     -5.1691      1.5000     78.3900
     12      3.5202      0.8283     -5.9719      1.2000     78.3900
     13      3.3018      1.1463     -4.5073      1.2000     78.3900

 MEMORY USED TO GENERATE CAVITY=    262582


 TOTAL NUMBER OF SPHERES=    13
 SPHERE           CENTER  (X,Y,Z) (A)               RADIUS (A)      AREA(A*A)
     1   1.524440000   0.275770000   0.932220000   2.172000000  38.514816425
     2   2.809020000  -0.067940000  -0.207700000   2.040000000   3.656840556
     3   2.934061772   1.002300000  -1.250520000   2.040000000  12.209116422
     4   3.535260000   0.801550000  -2.306700000   1.800000000   8.930759737
     5   2.587890000  -1.062590000  -0.669290000   1.440000000   7.104157662
     6   3.764080000  -0.132120000   0.374830000   1.440000000   8.250553238
     7   2.459600000   1.984550000  -1.019280000   1.440000000   7.023178368
     8   4.510170000  -1.555570000  -4.211660000   1.800000000  20.269614417
     9   4.188800000  -0.798030000  -3.709730000   1.440000000   0.593905972
    10   4.161250000  -1.403560000  -5.096560000   1.440000000   4.865725829
    11   3.130820000   0.466430000  -5.169060000   1.800000000  12.440235856
    12   3.520250000   0.828300000  -5.971880000   1.440000000   9.845727228
    13   3.301770000   1.146260000  -4.507270000   1.440000000   4.780806677

 TOTAL NUMBER OF TESSERAE=     272
 SURFACE AREA=   138.48543839(A**2)    CAVITY VOLUME=    119.32819783 (A**3)
 STEP CPU TIME =     0.00 TOTAL CPU TIME =          0.8 (      0.0 MIN)
 TOTAL WALL CLOCK TIME=          0.8 SECONDS, CPU UTILIZATION IS   100.00%

          THE SOLUTE IS ENCLOSED IN ONE CAVITY
 DONE CHECKING SEPARATION.
 STEP CPU TIME =     0.00 TOTAL CPU TIME =          0.8 (      0.0 MIN)
 TOTAL WALL CLOCK TIME=          0.8 SECONDS, CPU UTILIZATION IS   100.00%
 
 ..... DONE SETTING UP PCM CALCULATION .....
 STEP CPU TIME =     0.00 TOTAL CPU TIME =          0.8 (      0.0 MIN)
 TOTAL WALL CLOCK TIME=          0.8 SECONDS, CPU UTILIZATION IS   100.00%

          --------------------------
               R-AM1 SCF CALCULATION
          --------------------------
     DENSITY MATRIX CONV=  1.00E-05

 ITER EX DEM     TOTAL ENERGY        E CHANGE  DENSITY CHANGE    DIIS ERROR
   1  0  0      -62.0865730277   -62.0865730277   0.002919421   0.000000000
   2  1  0      -62.0865946861    -0.0000216583   0.001206102   0.000000000
   3  2  0      -62.0865981562    -0.0000034702   0.000534464   0.000000000
   4  3  0      -62.0865988653    -0.0000007091   0.000244441   0.000000000
   5  0  0      -62.0865990231    -0.0000001578   0.000220247   0.000000000
   6  1  0      -62.0865990725    -0.0000000494   0.000012604   0.000000000
   7  2  0      -62.0865990727    -0.0000000002   0.000008920   0.000000000
   8  3  0      -62.0865990728    -0.0000000001   0.000006350   0.000000000

          -----------------
          DENSITY CONVERGED
          -----------------
     TIME TO FORM FOCK OPERATORS=       0.1 SECONDS (       0.0 SEC/ITER)
     TIME TO SOLVE SCF EQUATIONS=       0.0 SECONDS (       0.0 SEC/ITER)

 FINAL R-AM1 ENERGY IS      -62.0865990728 AFTER   8 ITERATIONS

 HEAT OF FORMATION IS      -182.97457 KCAL/MOL
 
  
   PCM ASC=      0.0394094812
   GCAVP  =      0.0000000000
   GDISP  =      0.0000000000
   GREP   =      0.0000000000
 ...... END OF RHF CALCULATION ......
 STEP CPU TIME =     0.08 TOTAL CPU TIME =          0.9 (      0.0 MIN)
 TOTAL WALL CLOCK TIME=          0.9 SECONDS, CPU UTILIZATION IS   100.00%
 
 .... DONE WITH PCM CONTRIBUTION TO GRADIENT ....
 STEP CPU TIME =     0.01 TOTAL CPU TIME =          0.9 (      0.0 MIN)
 TOTAL WALL CLOCK TIME=          0.9 SECONDS, CPU UTILIZATION IS   100.00%
 STEP CPU TIME =     0.00 TOTAL CPU TIME =          0.9 (      0.0 MIN)
 TOTAL WALL CLOCK TIME=          0.9 SECONDS, CPU UTILIZATION IS   100.00%

 UNITS ARE HARTREE/BOHR    E'X               E'Y               E'Z 
    1 CL              -0.000172041      -0.000143210       0.000292836
    2 C               -0.000771550      -0.000086980      -0.000004261
    3 C                0.004493226      -0.001500216      -0.004049297
    4 O               -0.002750623       0.000807203       0.003806654
    5 H                0.000034540      -0.000154647       0.000003135
    6 H                0.000051029       0.000156382      -0.000146549
    7 H               -0.000971553       0.000877648       0.000063421
    8 O                0.000034145       0.000004762       0.000018327
    9 H                0.000015274       0.000025594       0.000018976
   10 H                0.000031615       0.000014487      -0.000006103
   11 O               -0.000135808      -0.000249837       0.000325103
   12 H                0.000126781       0.000182449      -0.000386653
   13 H                0.000014965       0.000066364       0.000064410
  $VIB   
          IVIB=   1 IATOM=   3 ICOORD=   1 E=      -62.0865990728
 -1.720409465E-04-1.432099972E-04 2.928364598E-04-7.715497346E-04-8.697954340E-05
 -4.260570561E-06 4.493225795E-03-1.500216492E-03-4.049297192E-03-2.750623358E-03
  8.072034539E-04 3.806654159E-03 3.454049805E-05-1.546467049E-04 3.134913168E-06
  5.102938704E-05 1.563818652E-04-1.465485437E-04-9.715531546E-04 8.776476343E-04
  6.342141278E-05 3.414486364E-05 4.762127064E-06 1.832686383E-05 1.527392462E-05
  2.559441101E-05 1.897609460E-05 3.161495438E-05 1.448723753E-05-6.103170740E-06
 -1.358078417E-04-2.498373826E-04 3.251026132E-04 1.267806690E-04 1.824493289E-04
 -3.866526678E-04 1.496494326E-05 6.636406217E-05 6.440962843E-05
 -3.481283805E-01 3.417521777E+00 7.191446045E-01
1   ATOM  3
                                        -------------------
   COORD  2                             NUCLEAR COORDINATES
                                        -------------------
     VIB  1

                       ATOM             X              Y              Z

                 1  CL               2.880774       0.521130       1.761640
                 2  C                5.308278      -0.128388      -0.392496
                 3  C                5.534573       1.904072      -2.363140
                 4  O                6.680673       1.514710      -4.359031
                 5  H                4.890403      -2.008004      -1.264775
                 6  H                7.113080      -0.249671       0.708326
                 7  H                4.647970       3.750256      -1.926160
                 8  O                8.522985      -2.939601      -7.958883
                 9  H                7.915684      -1.508058      -7.010373
                10  H                7.863622      -2.652344      -9.631102
                11  O                5.916392       0.881425      -9.768107
                12  H                6.652308       1.565260     -11.285217
                13  H                6.239441       2.166117      -8.517505

 MOPAC ONE- AND TWO-ELECTRON INTEGRALS REQUIRE      2933 WORDS.
 ...... END OF ONE- AND TWO-ELECTRON INTEGRALS......
 STEP CPU TIME =     0.00 TOTAL CPU TIME =          0.9 (      0.0 MIN)
 TOTAL WALL CLOCK TIME=          0.9 SECONDS, CPU UTILIZATION IS   100.00%
 ...... END OF ONE-ELECTRON INTEGRALS ......
 STEP CPU TIME =     0.00 TOTAL CPU TIME =          0.9 (      0.0 MIN)
 TOTAL WALL CLOCK TIME=          0.9 SECONDS, CPU UTILIZATION IS   100.00%

     ----------------------------
     INPUT FOR TESSERA DEFINITION
     ----------------------------
     NTSALL  =        60     MTHALL  =         4
     MTHAUT  =         0     AUTFRE  =    2.0000
     NTSFRZ  =        60     KEEPSM  =         0
     AREAKP  =   10.0000     BONDRY  =    1.0000
     AREATL  =    0.0100

     SPHERE     INITS       METHOD
          1        60       FIXPVA
          2        60       FIXPVA
          3        60       FIXPVA
          4        60       FIXPVA
          5        60       FIXPVA
          6        60       FIXPVA
          7        60       FIXPVA
          8        60       FIXPVA
          9        60       FIXPVA
         10        60       FIXPVA
         11        60       FIXPVA
         12        60       FIXPVA
         13        60       FIXPVA

     ------------------------------
      FIXPVA TESSELLATION FOR PCM
         PEIFENG SU AND HUI LI
     UNIVERSITY OF NEBRASKA-LINCOLN
     ------------------------------


     INPUT FOR CAVITY DEFINITION 
     ---------------------------
   ATOM               COORDINATES                RADIUS       EPS
      1      1.5244      0.2758      0.9322      1.8100     78.3900
      2      2.8090     -0.0679     -0.2077      1.7000     78.3900
      3      2.9288      1.0076     -1.2505      1.7000     78.3900
      4      3.5353      0.8015     -2.3067      1.5000     78.3900
      5      2.5879     -1.0626     -0.6693      1.2000     78.3900
      6      3.7641     -0.1321      0.3748      1.2000     78.3900
      7      2.4596      1.9845     -1.0193      1.2000     78.3900
      8      4.5102     -1.5556     -4.2117      1.5000     78.3900
      9      4.1888     -0.7980     -3.7097      1.2000     78.3900
     10      4.1612     -1.4036     -5.0966      1.2000     78.3900
     11      3.1308      0.4664     -5.1691      1.5000     78.3900
     12      3.5202      0.8283     -5.9719      1.2000     78.3900
     13      3.3018      1.1463     -4.5073      1.2000     78.3900

 MEMORY USED TO GENERATE CAVITY=    262582


 TOTAL NUMBER OF SPHERES=    13
 SPHERE           CENTER  (X,Y,Z) (A)               RADIUS (A)      AREA(A*A)
     1   1.524440000   0.275770000   0.932220000   2.172000000  38.499179593
     2   2.809020000  -0.067940000  -0.207700000   2.040000000   3.657588142
     3   2.928770000   1.007591772  -1.250520000   2.040000000  12.205361634
     4   3.535260000   0.801550000  -2.306700000   1.800000000   8.951977996
     5   2.587890000  -1.062590000  -0.669290000   1.440000000   7.104060703
     6   3.764080000  -0.132120000   0.374830000   1.440000000   8.266001760
     7   2.459600000   1.984550000  -1.019280000   1.440000000   6.991959735
     8   4.510170000  -1.555570000  -4.211660000   1.800000000  20.269614417
     9   4.188800000  -0.798030000  -3.709730000   1.440000000   0.594245833
    10   4.161250000  -1.403560000  -5.096560000   1.440000000   4.865725829
    11   3.130820000   0.466430000  -5.169060000   1.800000000  12.440478637
    12   3.520250000   0.828300000  -5.971880000   1.440000000   9.845727228
    13   3.301770000   1.146260000  -4.507270000   1.440000000   4.773969943

 TOTAL NUMBER OF TESSERAE=     272
 SURFACE AREA=   138.46589145(A**2)    CAVITY VOLUME=    119.34512413 (A**3)
 STEP CPU TIME =     0.00 TOTAL CPU TIME =          0.9 (      0.0 MIN)
 TOTAL WALL CLOCK TIME=          0.9 SECONDS, CPU UTILIZATION IS   100.00%

          THE SOLUTE IS ENCLOSED IN ONE CAVITY
 DONE CHECKING SEPARATION.
 STEP CPU TIME =     0.00 TOTAL CPU TIME =          0.9 (      0.0 MIN)
 TOTAL WALL CLOCK TIME=          0.9 SECONDS, CPU UTILIZATION IS   100.00%
 
 ..... DONE SETTING UP PCM CALCULATION .....
 STEP CPU TIME =     0.00 TOTAL CPU TIME =          0.9 (      0.0 MIN)
 TOTAL WALL CLOCK TIME=          0.9 SECONDS, CPU UTILIZATION IS   100.00%

          --------------------------
               R-AM1 SCF CALCULATION
          --------------------------
     DENSITY MATRIX CONV=  1.00E-05

 ITER EX DEM     TOTAL ENERGY        E CHANGE  DENSITY CHANGE    DIIS ERROR
   1  0  0      -62.0865702431   -62.0865702431   0.002191894   0.000000000
   2  1  0      -62.0865896886    -0.0000194455   0.001044738   0.000000000
   3  2  0      -62.0865925410    -0.0000028524   0.000523169   0.000000000
   4  3  0      -62.0865931499    -0.0000006089   0.000270313   0.000000000
   5  0  0      -62.0865933049    -0.0000001550   0.000308274   0.000000000
   6  1  0      -62.0865933661    -0.0000000612   0.000004951   0.000000000
   7  2  0      -62.0865933662    -0.0000000001   0.000003100   0.000000000
   8  3  0      -62.0865933663    -0.0000000001   0.000002116   0.000000000

          -----------------
          DENSITY CONVERGED
          -----------------
     TIME TO FORM FOCK OPERATORS=       0.1 SECONDS (       0.0 SEC/ITER)
     TIME TO SOLVE SCF EQUATIONS=       0.0 SECONDS (       0.0 SEC/ITER)

 FINAL R-AM1 ENERGY IS      -62.0865933663 AFTER   8 ITERATIONS

 HEAT OF FORMATION IS      -182.97099 KCAL/MOL
 
  
   PCM ASC=      0.0394198834
   GCAVP  =      0.0000000000
   GDISP  =      0.0000000000
   GREP   =      0.0000000000
 ...... END OF RHF CALCULATION ......
 STEP CPU TIME =     0.10 TOTAL CPU TIME =          1.0 (      0.0 MIN)
 TOTAL WALL CLOCK TIME=          1.0 SECONDS, CPU UTILIZATION IS   100.00%
 
 .... DONE WITH PCM CONTRIBUTION TO GRADIENT ....
 STEP CPU TIME =     0.02 TOTAL CPU TIME =          1.1 (      0.0 MIN)
 TOTAL WALL CLOCK TIME=          1.1 SECONDS, CPU UTILIZATION IS   100.00%
 STEP CPU TIME =     0.00 TOTAL CPU TIME =          1.1 (      0.0 MIN)
 TOTAL WALL CLOCK TIME=          1.1 SECONDS, CPU UTILIZATION IS   100.00%

 UNITS ARE HARTREE/BOHR    E'X               E'Y               E'Z 
    1 CL              -0.000036370       0.000012819       0.000008893
    2 C               -0.000220195      -0.001837083       0.001061652
    3 C               -0.001684450       0.005488243       0.000708584
    4 O                0.000978634      -0.000866467      -0.001670670
    5 H               -0.000055626      -0.000414361       0.000150467
    6 H                0.000111759      -0.000044920       0.000154563
    7 H                0.000816282      -0.002385079      -0.000436544
    8 O                0.000033840       0.000004581       0.000020955
    9 H                0.000018865       0.000026148       0.000017839
   10 H                0.000031777       0.000013742      -0.000007520
   11 O               -0.000135204      -0.000248348       0.000333730
   12 H                0.000127034       0.000183088      -0.000388075
   13 H                0.000013654       0.000067636       0.000046125
  $VIB   
          IVIB=   1 IATOM=   3 ICOORD=   2 E=      -62.0865933663
 -3.637006243E-05 1.281894680E-05 8.892730749E-06-2.201950195E-04-1.837083463E-03
  1.061652158E-03-1.684449535E-03 5.488243446E-03 7.085844512E-04 9.786341661E-04
 -8.664670355E-04-1.670670137E-03-5.562566138E-05-4.143611146E-04 1.504668094E-04
  1.117587234E-04-4.491982824E-05 1.545633697E-04 8.162815069E-04-2.385078591E-03
 -4.365435130E-04 3.383995388E-05 4.581273335E-06 2.095516045E-05 1.886542992E-05
  2.614832228E-05 1.783884146E-05 3.177662926E-05 1.374221575E-05-7.520208262E-06
 -1.352044920E-04-2.483476658E-04 3.337303710E-04 1.270344736E-04 1.830879208E-04
 -3.880748154E-04 1.365388761E-05 6.763557252E-05 4.612478239E-05
 -3.561328176E-01 3.425515533E+00 7.188453380E-01
1   ATOM  3
                                        -------------------
   COORD  3                             NUCLEAR COORDINATES
                                        -------------------
     VIB  1

                       ATOM             X              Y              Z

                 1  CL               2.880774       0.521130       1.761640
                 2  C                5.308278      -0.128388      -0.392496
                 3  C                5.534573       1.894072      -2.353140
                 4  O                6.680673       1.514710      -4.359031
                 5  H                4.890403      -2.008004      -1.264775
                 6  H                7.113080      -0.249671       0.708326
                 7  H                4.647970       3.750256      -1.926160
                 8  O                8.522985      -2.939601      -7.958883
                 9  H                7.915684      -1.508058      -7.010373
                10  H                7.863622      -2.652344      -9.631102
                11  O                5.916392       0.881425      -9.768107
                12  H                6.652308       1.565260     -11.285217
                13  H                6.239441       2.166117      -8.517505

 MOPAC ONE- AND TWO-ELECTRON INTEGRALS REQUIRE      2933 WORDS.
 ...... END OF ONE- AND TWO-ELECTRON INTEGRALS......
 STEP CPU TIME =     0.00 TOTAL CPU TIME =          1.1 (      0.0 MIN)
 TOTAL WALL CLOCK TIME=          1.1 SECONDS, CPU UTILIZATION IS   100.00%
 ...... END OF ONE-ELECTRON INTEGRALS ......
 STEP CPU TIME =     0.00 TOTAL CPU TIME =          1.1 (      0.0 MIN)
 TOTAL WALL CLOCK TIME=          1.1 SECONDS, CPU UTILIZATION IS   100.00%

     ----------------------------
     INPUT FOR TESSERA DEFINITION
     ----------------------------
     NTSALL  =        60     MTHALL  =         4
     MTHAUT  =         0     AUTFRE  =    2.0000
     NTSFRZ  =        60     KEEPSM  =         0
     AREAKP  =   10.0000     BONDRY  =    1.0000
     AREATL  =    0.0100

     SPHERE     INITS       METHOD
          1        60       FIXPVA
          2        60       FIXPVA
          3        60       FIXPVA
          4        60       FIXPVA
          5        60       FIXPVA
          6        60       FIXPVA
          7        60       FIXPVA
          8        60       FIXPVA
          9        60       FIXPVA
         10        60       FIXPVA
         11        60       FIXPVA
         12        60       FIXPVA
         13        60       FIXPVA

     ------------------------------
      FIXPVA TESSELLATION FOR PCM
         PEIFENG SU AND HUI LI
     UNIVERSITY OF NEBRASKA-LINCOLN
     ------------------------------


     INPUT FOR CAVITY DEFINITION 
     ---------------------------
   ATOM               COORDINATES                RADIUS       EPS
      1      1.5244      0.2758      0.9322      1.8100     78.3900
      2      2.8090     -0.0679     -0.2077      1.7000     78.3900
      3      2.9288      1.0023     -1.2452      1.7000     78.3900
      4      3.5353      0.8015     -2.3067      1.5000     78.3900
      5      2.5879     -1.0626     -0.6693      1.2000     78.3900
      6      3.7641     -0.1321      0.3748      1.2000     78.3900
      7      2.4596      1.9845     -1.0193      1.2000     78.3900
      8      4.5102     -1.5556     -4.2117      1.5000     78.3900
      9      4.1888     -0.7980     -3.7097      1.2000     78.3900
     10      4.1612     -1.4036     -5.0966      1.2000     78.3900
     11      3.1308      0.4664     -5.1691      1.5000     78.3900
     12      3.5202      0.8283     -5.9719      1.2000     78.3900
     13      3.3018      1.1463     -4.5073      1.2000     78.3900

 MEMORY USED TO GENERATE CAVITY=    262582


 TOTAL NUMBER OF SPHERES=    13
 SPHERE           CENTER  (X,Y,Z) (A)               RADIUS (A)      AREA(A*A)
     1   1.524440000   0.275770000   0.932220000   2.172000000  38.489584119
     2   2.809020000  -0.067940000  -0.207700000   2.040000000   3.657251449
     3   2.928770000   1.002300000  -1.245228228   2.040000000  12.212367271
     4   3.535260000   0.801550000  -2.306700000   1.800000000   9.032878202
     5   2.587890000  -1.062590000  -0.669290000   1.440000000   7.104236590
     6   3.764080000  -0.132120000   0.374830000   1.440000000   8.254909901
     7   2.459600000   1.984550000  -1.019280000   1.440000000   7.015632552
     8   4.510170000  -1.555570000  -4.211660000   1.800000000  20.269614417
     9   4.188800000  -0.798030000  -3.709730000   1.440000000   0.594105392
    10   4.161250000  -1.403560000  -5.096560000   1.440000000   4.865725829
    11   3.130820000   0.466430000  -5.169060000   1.800000000  12.440697651
    12   3.520250000   0.828300000  -5.971880000   1.440000000   9.845727228
    13   3.301770000   1.146260000  -4.507270000   1.440000000   4.785052656

 TOTAL NUMBER OF TESSERAE=     272
 SURFACE AREA=   138.56778326(A**2)    CAVITY VOLUME=    119.42275252 (A**3)
 STEP CPU TIME =     0.00 TOTAL CPU TIME =          1.1 (      0.0 MIN)
 TOTAL WALL CLOCK TIME=          1.1 SECONDS, CPU UTILIZATION IS   100.00%

          THE SOLUTE IS ENCLOSED IN ONE CAVITY
 DONE CHECKING SEPARATION.
 STEP CPU TIME =     0.00 TOTAL CPU TIME =          1.1 (      0.0 MIN)
 TOTAL WALL CLOCK TIME=          1.1 SECONDS, CPU UTILIZATION IS   100.00%
 
 ..... DONE SETTING UP PCM CALCULATION .....
 STEP CPU TIME =     0.00 TOTAL CPU TIME =          1.1 (      0.0 MIN)
 TOTAL WALL CLOCK TIME=          1.1 SECONDS, CPU UTILIZATION IS   100.00%

          --------------------------
               R-AM1 SCF CALCULATION
          --------------------------
     DENSITY MATRIX CONV=  1.00E-05

 ITER EX DEM     TOTAL ENERGY        E CHANGE  DENSITY CHANGE    DIIS ERROR
   1  0  0      -62.0865479690   -62.0865479690   0.002728102   0.000000000
   2  1  0      -62.0865695297    -0.0000215606   0.000945649   0.000000000
   3  2  0      -62.0865720445    -0.0000025149   0.000369914   0.000000000
   4  3  0      -62.0865725020    -0.0000004574   0.000174294   0.000000000
   5  0  0      -62.0865726027    -0.0000001007   0.000181708   0.000000000
   6  1  0      -62.0865726357    -0.0000000330   0.000008495   0.000000000
   7  2  0      -62.0865726358    -0.0000000001   0.000006065   0.000000000
   8  3  0      -62.0865726359    -0.0000000001   0.000004354   0.000000000

          -----------------
          DENSITY CONVERGED
          -----------------
     TIME TO FORM FOCK OPERATORS=       0.1 SECONDS (       0.0 SEC/ITER)
     TIME TO SOLVE SCF EQUATIONS=       0.0 SECONDS (       0.0 SEC/ITER)

 FINAL R-AM1 ENERGY IS      -62.0865726359 AFTER   8 ITERATIONS

 HEAT OF FORMATION IS      -182.95798 KCAL/MOL
 
  
   PCM ASC=      0.0393993111
   GCAVP  =      0.0000000000
   GDISP  =      0.0000000000
   GREP   =      0.0000000000
 ...... END OF RHF CALCULATION ......
 STEP CPU TIME =     0.10 TOTAL CPU TIME =          1.2 (      0.0 MIN)
 TOTAL WALL CLOCK TIME=          1.2 SECONDS, CPU UTILIZATION IS   100.00%
 
 .... DONE WITH PCM CONTRIBUTION TO GRADIENT ....
 STEP CPU TIME =     0.02 TOTAL CPU TIME =          1.2 (      0.0 MIN)
 TOTAL WALL CLOCK TIME=          1.2 SECONDS, CPU UTILIZATION IS   100.00%
 STEP CPU TIME =     0.00 TOTAL CPU TIME =          1.2 (      0.0 MIN)
 TOTAL WALL CLOCK TIME=          1.2 SECONDS, CPU UTILIZATION IS   100.00%

 UNITS ARE HARTREE/BOHR    E'X               E'Y               E'Z 
    1 CL               0.000153325       0.000086899      -0.000271387
    2 C                0.000018121       0.000876855      -0.001422677
    3 C               -0.004102549       0.000645407       0.009633069
    4 O                0.003906943      -0.001319875      -0.007383070
    5 H               -0.000023432      -0.000024064       0.000056870
    6 H               -0.000105721       0.000182255      -0.000145136
    7 H                0.000056100      -0.000486948      -0.000475462
    8 O                0.000032332       0.000009484       0.000028870
    9 H                0.000027711       0.000008925       0.000001376
   10 H                0.000031057       0.000013679      -0.000010404
   11 O               -0.000132512      -0.000250512       0.000340312
   12 H                0.000126484       0.000182756      -0.000390300
   13 H                0.000012140       0.000075139       0.000037939
  $VIB   
          IVIB=   1 IATOM=   3 ICOORD=   3 E=      -62.0865726359
  1.533247544E-04 8.689879354E-05-2.713873889E-04 1.812113379E-05 8.768547335E-04
 -1.422677325E-03-4.102548792E-03 6.454069589E-04 9.633069392E-03 3.906943247E-03
 -1.319875112E-03-7.383069747E-03-2.343169293E-05-2.406372665E-05 5.687002906E-05
 -1.057208888E-04 1.822552646E-04-1.451362306E-04 5.610038742E-05-4.869479586E-04
 -4.754616480E-04 3.233220435E-05 9.483737666E-06 2.886962438E-05 2.771095837E-05
  8.925378904E-06 1.376446735E-06 3.105737775E-05 1.367856023E-05-1.040425546E-05
 -1.325118824E-04-2.505121568E-04 3.403121412E-04 1.264835493E-04 1.827563129E-04
 -3.903003181E-04 1.213964304E-05 7.513921347E-05 3.793928050E-05
 -3.541552082E-01 3.422096599E+00 7.191100838E-01
1   ATOM  4
                                        -------------------
   COORD  1                             NUCLEAR COORDINATES
                                        -------------------
     VIB  1

                       ATOM             X              Y              Z

                 1  CL               2.880774       0.521130       1.761640
                 2  C                5.308278      -0.128388      -0.392496
                 3  C                5.534573       1.894072      -2.363140
                 4  O                6.690673       1.514710      -4.359031
                 5  H                4.890403      -2.008004      -1.264775
                 6  H                7.113080      -0.249671       0.708326
                 7  H                4.647970       3.750256      -1.926160
                 8  O                8.522985      -2.939601      -7.958883
                 9  H                7.915684      -1.508058      -7.010373
                10  H                7.863622      -2.652344      -9.631102
                11  O                5.916392       0.881425      -9.768107
                12  H                6.652308       1.565260     -11.285217
                13  H                6.239441       2.166117      -8.517505

 MOPAC ONE- AND TWO-ELECTRON INTEGRALS REQUIRE      2933 WORDS.
 ...... END OF ONE- AND TWO-ELECTRON INTEGRALS......
 STEP CPU TIME =     0.00 TOTAL CPU TIME =          1.2 (      0.0 MIN)
 TOTAL WALL CLOCK TIME=          1.2 SECONDS, CPU UTILIZATION IS   100.00%
 ...... END OF ONE-ELECTRON INTEGRALS ......
 STEP CPU TIME =     0.00 TOTAL CPU TIME =          1.2 (      0.0 MIN)
 TOTAL WALL CLOCK TIME=          1.2 SECONDS, CPU UTILIZATION IS   100.00%

     ----------------------------
     INPUT FOR TESSERA DEFINITION
     ----------------------------
     NTSALL  =        60     MTHALL  =         4
     MTHAUT  =         0     AUTFRE  =    2.0000
     NTSFRZ  =        60     KEEPSM  =         0
     AREAKP  =   10.0000     BONDRY  =    1.0000
     AREATL  =    0.0100

     SPHERE     INITS       METHOD
          1        60       FIXPVA
          2        60       FIXPVA
          3        60       FIXPVA
          4        60       FIXPVA
          5        60       FIXPVA
          6        60       FIXPVA
          7        60       FIXPVA
          8        60       FIXPVA
          9        60       FIXPVA
         10        60       FIXPVA
         11        60       FIXPVA
         12        60       FIXPVA
         13        60       FIXPVA

     ------------------------------
      FIXPVA TESSELLATION FOR PCM
         PEIFENG SU AND HUI LI
     UNIVERSITY OF NEBRASKA-LINCOLN
     ------------------------------


     INPUT FOR CAVITY DEFINITION 
     ---------------------------
   ATOM               COORDINATES                RADIUS       EPS
      1      1.5244      0.2758      0.9322      1.8100     78.3900
      2      2.8090     -0.0679     -0.2077      1.7000     78.3900
      3      2.9288      1.0023     -1.2505      1.7000     78.3900
      4      3.5406      0.8015     -2.3067      1.5000     78.3900
      5      2.5879     -1.0626     -0.6693      1.2000     78.3900
      6      3.7641     -0.1321      0.3748      1.2000     78.3900
      7      2.4596      1.9845     -1.0193      1.2000     78.3900
      8      4.5102     -1.5556     -4.2117      1.5000     78.3900
      9      4.1888     -0.7980     -3.7097      1.2000     78.3900
     10      4.1612     -1.4036     -5.0966      1.2000     78.3900
     11      3.1308      0.4664     -5.1691      1.5000     78.3900
     12      3.5202      0.8283     -5.9719      1.2000     78.3900
     13      3.3018      1.1463     -4.5073      1.2000     78.3900

 MEMORY USED TO GENERATE CAVITY=    262582


 TOTAL NUMBER OF SPHERES=    13
 SPHERE           CENTER  (X,Y,Z) (A)               RADIUS (A)      AREA(A*A)
     1   1.524440000   0.275770000   0.932220000   2.172000000  38.490629521
     2   2.809020000  -0.067940000  -0.207700000   2.040000000   3.656888728
     3   2.928770000   1.002300000  -1.250520000   2.040000000  12.157091188
     4   3.540551772   0.801550000  -2.306700000   1.800000000   9.024759581
     5   2.587890000  -1.062590000  -0.669290000   1.440000000   7.106253134
     6   3.764080000  -0.132120000   0.374830000   1.440000000   8.262463048
     7   2.459600000   1.984550000  -1.019280000   1.440000000   7.030853727
     8   4.510170000  -1.555570000  -4.211660000   1.800000000  20.269614399
     9   4.188800000  -0.798030000  -3.709730000   1.440000000   0.591569373
    10   4.161250000  -1.403560000  -5.096560000   1.440000000   4.865725829
    11   3.130820000   0.466430000  -5.169060000   1.800000000  12.440362682
    12   3.520250000   0.828300000  -5.971880000   1.440000000   9.845727228
    13   3.301770000   1.146260000  -4.507270000   1.440000000   4.774349276

 TOTAL NUMBER OF TESSERAE=     272
 SURFACE AREA=   138.51628771(A**2)    CAVITY VOLUME=    119.43914036 (A**3)
 STEP CPU TIME =     0.00 TOTAL CPU TIME =          1.2 (      0.0 MIN)
 TOTAL WALL CLOCK TIME=          1.2 SECONDS, CPU UTILIZATION IS   100.00%

          THE SOLUTE IS ENCLOSED IN ONE CAVITY
 DONE CHECKING SEPARATION.
 STEP CPU TIME =     0.00 TOTAL CPU TIME =          1.2 (      0.0 MIN)
 TOTAL WALL CLOCK TIME=          1.2 SECONDS, CPU UTILIZATION IS   100.00%
 
 ..... DONE SETTING UP PCM CALCULATION .....
 STEP CPU TIME =     0.00 TOTAL CPU TIME =          1.2 (      0.0 MIN)
 TOTAL WALL CLOCK TIME=          1.2 SECONDS, CPU UTILIZATION IS   100.00%

          --------------------------
               R-AM1 SCF CALCULATION
          --------------------------
     DENSITY MATRIX CONV=  1.00E-05

 ITER EX DEM     TOTAL ENERGY        E CHANGE  DENSITY CHANGE    DIIS ERROR
   1  0  0      -62.0865846145   -62.0865846145   0.003183318   0.000000000
   2  1  0      -62.0866022174    -0.0000176028   0.001359121   0.000000000
   3  2  0      -62.0866052454    -0.0000030280   0.000606825   0.000000000
   4  3  0      -62.0866058646    -0.0000006192   0.000276559   0.000000000
   5  4  0      -62.0866059982    -0.0000001336   0.000127777   0.000000000
   6  5  0      -62.0866060279    -0.0000000297   0.000059813   0.000000000
   7  6  0      -62.0866060347    -0.0000000068   0.000028442   0.000000000
   8  7  0      -62.0866060364    -0.0000000017   0.000013808   0.000000000
   9  8  0      -62.0866060368    -0.0000000004   0.000006894   0.000000000
  10  9  0      -62.0866060370    -0.0000000001   0.000004741   0.000000000

          -----------------
          DENSITY CONVERGED
          -----------------
     TIME TO FORM FOCK OPERATORS=       0.1 SECONDS (       0.0 SEC/ITER)
     TIME TO SOLVE SCF EQUATIONS=       0.0 SECONDS (       0.0 SEC/ITER)

 FINAL R-AM1 ENERGY IS      -62.0866060370 AFTER  10 ITERATIONS

 HEAT OF FORMATION IS      -182.97894 KCAL/MOL
 
  
   PCM ASC=      0.0394092712
   GCAVP  =      0.0000000000
   GDISP  =      0.0000000000
   GREP   =      0.0000000000
 ...... END OF RHF CALCULATION ......
 STEP CPU TIME =     0.12 TOTAL CPU TIME =          1.3 (      0.0 MIN)
 TOTAL WALL CLOCK TIME=          1.3 SECONDS, CPU UTILIZATION IS   100.00%
 
 .... DONE WITH PCM CONTRIBUTION TO GRADIENT ....
 STEP CPU TIME =     0.01 TOTAL CPU TIME =          1.3 (      0.0 MIN)
 TOTAL WALL CLOCK TIME=          1.3 SECONDS, CPU UTILIZATION IS   100.00%
 STEP CPU TIME =     0.00 TOTAL CPU TIME =          1.3 (      0.0 MIN)
 TOTAL WALL CLOCK TIME=          1.3 SECONDS, CPU UTILIZATION IS   100.00%

 UNITS ARE HARTREE/BOHR    E'X               E'Y               E'Z 
    1 CL              -0.000036796      -0.000030427       0.000007864
    2 C                0.000010924      -0.000144535       0.000383977
    3 C               -0.002929492       0.000956019       0.003907721
    4 O                0.002941868      -0.000939757      -0.004689676
    5 H               -0.000017434      -0.000062751      -0.000024216
    6 H                0.000014951      -0.000019235       0.000045341
    7 H               -0.000067629       0.000185162       0.000351654
    8 O                0.000032590       0.000010756       0.000027144
    9 H                0.000014236       0.000025018       0.000013214
   10 H                0.000030795       0.000014347      -0.000008597
   11 O               -0.000133129      -0.000250031       0.000332778
   12 H                0.000126969       0.000183478      -0.000388227
   13 H                0.000012148       0.000071957       0.000041022
  $VIB   
          IVIB=   1 IATOM=   4 ICOORD=   1 E=      -62.0866060370
 -3.679621547E-05-3.042728619E-05 7.863659162E-06 1.092429471E-05-1.445351263E-04
  3.839774926E-04-2.929492467E-03 9.560186869E-04 3.907721165E-03 2.941867638E-03
 -9.397566286E-04-4.689675669E-03-1.743357769E-05-6.275131773E-05-2.421556812E-05
  1.495106308E-05-1.923501327E-05 4.534134809E-05-6.762889527E-05 1.851624697E-04
  3.516537438E-04 3.258982194E-05 1.075583397E-05 2.714396123E-05 1.423627064E-05
  2.501809166E-05 1.321386181E-05 3.079543098E-05 1.434653845E-05-8.596952049E-06
 -1.331294275E-04-2.500312973E-04 3.327779353E-04 1.269685305E-04 1.834782062E-04
 -3.882269694E-04 1.214753304E-05 7.195684265E-05 4.102199193E-05
 -3.653049899E-01 3.418766014E+00 7.146895251E-01
1   ATOM  4
                                        -------------------
   COORD  2                             NUCLEAR COORDINATES
                                        -------------------
     VIB  1

                       ATOM             X              Y              Z

                 1  CL               2.880774       0.521130       1.761640
                 2  C                5.308278      -0.128388      -0.392496
                 3  C                5.534573       1.894072      -2.363140
                 4  O                6.680673       1.524710      -4.359031
                 5  H                4.890403      -2.008004      -1.264775
                 6  H                7.113080      -0.249671       0.708326
                 7  H                4.647970       3.750256      -1.926160
                 8  O                8.522985      -2.939601      -7.958883
                 9  H                7.915684      -1.508058      -7.010373
                10  H                7.863622      -2.652344      -9.631102
                11  O                5.916392       0.881425      -9.768107
                12  H                6.652308       1.565260     -11.285217
                13  H                6.239441       2.166117      -8.517505

 MOPAC ONE- AND TWO-ELECTRON INTEGRALS REQUIRE      2933 WORDS.
 ...... END OF ONE- AND TWO-ELECTRON INTEGRALS......
 STEP CPU TIME =     0.00 TOTAL CPU TIME =          1.3 (      0.0 MIN)
 TOTAL WALL CLOCK TIME=          1.3 SECONDS, CPU UTILIZATION IS   100.00%
 ...... END OF ONE-ELECTRON INTEGRALS ......
 STEP CPU TIME =     0.00 TOTAL CPU TIME =          1.3 (      0.0 MIN)
 TOTAL WALL CLOCK TIME=          1.3 SECONDS, CPU UTILIZATION IS   100.00%

     ----------------------------
     INPUT FOR TESSERA DEFINITION
     ----------------------------
     NTSALL  =        60     MTHALL  =         4
     MTHAUT  =         0     AUTFRE  =    2.0000
     NTSFRZ  =        60     KEEPSM  =         0
     AREAKP  =   10.0000     BONDRY  =    1.0000
     AREATL  =    0.0100

     SPHERE     INITS       METHOD
          1        60       FIXPVA
          2        60       FIXPVA
          3        60       FIXPVA
          4        60       FIXPVA
          5        60       FIXPVA
          6        60       FIXPVA
          7        60       FIXPVA
          8        60       FIXPVA
          9        60       FIXPVA
         10        60       FIXPVA
         11        60       FIXPVA
         12        60       FIXPVA
         13        60       FIXPVA

     ------------------------------
      FIXPVA TESSELLATION FOR PCM
         PEIFENG SU AND HUI LI
     UNIVERSITY OF NEBRASKA-LINCOLN
     ------------------------------


     INPUT FOR CAVITY DEFINITION 
     ---------------------------
   ATOM               COORDINATES                RADIUS       EPS
      1      1.5244      0.2758      0.9322      1.8100     78.3900
      2      2.8090     -0.0679     -0.2077      1.7000     78.3900
      3      2.9288      1.0023     -1.2505      1.7000     78.3900
      4      3.5353      0.8068     -2.3067      1.5000     78.3900
      5      2.5879     -1.0626     -0.6693      1.2000     78.3900
      6      3.7641     -0.1321      0.3748      1.2000     78.3900
      7      2.4596      1.9845     -1.0193      1.2000     78.3900
      8      4.5102     -1.5556     -4.2117      1.5000     78.3900
      9      4.1888     -0.7980     -3.7097      1.2000     78.3900
     10      4.1612     -1.4036     -5.0966      1.2000     78.3900
     11      3.1308      0.4664     -5.1691      1.5000     78.3900
     12      3.5202      0.8283     -5.9719      1.2000     78.3900
     13      3.3018      1.1463     -4.5073      1.2000     78.3900

 MEMORY USED TO GENERATE CAVITY=    262582


 TOTAL NUMBER OF SPHERES=    13
 SPHERE           CENTER  (X,Y,Z) (A)               RADIUS (A)      AREA(A*A)
     1   1.524440000   0.275770000   0.932220000   2.172000000  38.490629521
     2   2.809020000  -0.067940000  -0.207700000   2.040000000   3.657708607
     3   2.928770000   1.002300000  -1.250520000   2.040000000  12.170708942
     4   3.535260000   0.806841772  -2.306700000   1.800000000   9.015101649
     5   2.587890000  -1.062590000  -0.669290000   1.440000000   7.106452503
     6   3.764080000  -0.132120000   0.374830000   1.440000000   8.267169896
     7   2.459600000   1.984550000  -1.019280000   1.440000000   7.030544980
     8   4.510170000  -1.555570000  -4.211660000   1.800000000  20.269614419
     9   4.188800000  -0.798030000  -3.709730000   1.440000000   0.594781799
    10   4.161250000  -1.403560000  -5.096560000   1.440000000   4.865725829
    11   3.130820000   0.466430000  -5.169060000   1.800000000  12.440081378
    12   3.520250000   0.828300000  -5.971880000   1.440000000   9.845727228
    13   3.301770000   1.146260000  -4.507270000   1.440000000   4.767748725

 TOTAL NUMBER OF TESSERAE=     272
 SURFACE AREA=   138.52199547(A**2)    CAVITY VOLUME=    119.42637814 (A**3)
 STEP CPU TIME =     0.00 TOTAL CPU TIME =          1.3 (      0.0 MIN)
 TOTAL WALL CLOCK TIME=          1.3 SECONDS, CPU UTILIZATION IS   100.00%

          THE SOLUTE IS ENCLOSED IN ONE CAVITY
 DONE CHECKING SEPARATION.
 STEP CPU TIME =     0.00 TOTAL CPU TIME =          1.3 (      0.0 MIN)
 TOTAL WALL CLOCK TIME=          1.3 SECONDS, CPU UTILIZATION IS   100.00%
 
 ..... DONE SETTING UP PCM CALCULATION .....
 STEP CPU TIME =     0.00 TOTAL CPU TIME =          1.3 (      0.0 MIN)
 TOTAL WALL CLOCK TIME=          1.3 SECONDS, CPU UTILIZATION IS   100.00%

          --------------------------
               R-AM1 SCF CALCULATION
          --------------------------
     DENSITY MATRIX CONV=  1.00E-05

 ITER EX DEM     TOTAL ENERGY        E CHANGE  DENSITY CHANGE    DIIS ERROR
   1  0  0      -62.0866000546   -62.0866000546   0.002095211   0.000000000
   2  1  0      -62.0866133013    -0.0000132467   0.000986496   0.000000000
   3  2  0      -62.0866156392    -0.0000023379   0.000486353   0.000000000
   4  3  0      -62.0866161651    -0.0000005259   0.000248287   0.000000000
   5  0  0      -62.0866163008    -0.0000001357   0.000290026   0.000000000
   6  1  0      -62.0866163557    -0.0000000549   0.000005004   0.000000000
   7  2  0      -62.0866163558    -0.0000000001   0.000002709   0.000000000
   8  3  0      -62.0866163558     0.0000000000   0.000001494   0.000000000

          -----------------
          DENSITY CONVERGED
          -----------------
     TIME TO FORM FOCK OPERATORS=       0.1 SECONDS (       0.0 SEC/ITER)
     TIME TO SOLVE SCF EQUATIONS=       0.0 SECONDS (       0.0 SEC/ITER)

 FINAL R-AM1 ENERGY IS      -62.0866163558 AFTER   8 ITERATIONS

 HEAT OF FORMATION IS      -182.98542 KCAL/MOL
 
  
   PCM ASC=      0.0394144846
   GCAVP  =      0.0000000000
   GDISP  =      0.0000000000
   GREP   =      0.0000000000
 ...... END OF RHF CALCULATION ......
 STEP CPU TIME =     0.10 TOTAL CPU TIME =          1.4 (      0.0 MIN)
 TOTAL WALL CLOCK TIME=          1.4 SECONDS, CPU UTILIZATION IS   100.00%
 
 .... DONE WITH PCM CONTRIBUTION TO GRADIENT ....
 STEP CPU TIME =     0.01 TOTAL CPU TIME =          1.4 (      0.0 MIN)
 TOTAL WALL CLOCK TIME=          1.4 SECONDS, CPU UTILIZATION IS   100.00%
 STEP CPU TIME =     0.00 TOTAL CPU TIME =          1.4 (      0.0 MIN)
 TOTAL WALL CLOCK TIME=          1.4 SECONDS, CPU UTILIZATION IS   100.00%

 UNITS ARE HARTREE/BOHR    E'X               E'Y               E'Z 
    1 CL              -0.000060823      -0.000039865       0.000046515
    2 C               -0.000168533       0.000020079       0.000374395
    3 C                0.000709112      -0.000779016      -0.001283856
    4 O               -0.000861089       0.000948215       0.001191577
    5 H               -0.000008204      -0.000068078      -0.000032136
    6 H                0.000033277      -0.000016756       0.000039749
    7 H                0.000253297      -0.000069394      -0.000341042
    8 O                0.000037392      -0.000002604       0.000009783
    9 H                0.000025743      -0.000005780      -0.000006045
   10 H                0.000032297       0.000014256      -0.000003843
   11 O               -0.000137089      -0.000247339       0.000324926
   12 H                0.000127176       0.000183032      -0.000386648
   13 H                0.000017444       0.000063251       0.000066626
  $VIB   
          IVIB=   1 IATOM=   4 ICOORD=   2 E=      -62.0866163558
 -6.082259879E-05-3.986540303E-05 4.651547772E-05-1.685331658E-04 2.007887243E-05
  3.743948417E-04 7.091121523E-04-7.790155687E-04-1.283856069E-03-8.610888297E-04
  9.482149429E-04 1.191576956E-03-8.204150308E-06-6.807814959E-05-3.213643081E-05
  3.327713469E-05-1.675645412E-05 3.974908665E-05 2.532967174E-04-6.939402492E-05
 -3.410416275E-04 3.739171963E-05-2.603977769E-06 9.782750207E-06 2.574289725E-05
 -5.779747709E-06-6.045366240E-06 3.229680113E-05 1.425571899E-05-3.843174745E-06
 -1.370892129E-04-2.473391569E-04 3.249259082E-04 1.271762954E-04 1.830321626E-04
 -3.866484341E-04 1.744423979E-05 6.325078574E-05 6.662608193E-05
 -3.563010113E-01 3.409788863E+00 7.157913557E-01
1   ATOM  4
                                        -------------------
   COORD  3                             NUCLEAR COORDINATES
                                        -------------------
     VIB  1

                       ATOM             X              Y              Z

                 1  CL               2.880774       0.521130       1.761640
                 2  C                5.308278      -0.128388      -0.392496
                 3  C                5.534573       1.894072      -2.363140
                 4  O                6.680673       1.514710      -4.349031
                 5  H                4.890403      -2.008004      -1.264775
                 6  H                7.113080      -0.249671       0.708326
                 7  H                4.647970       3.750256      -1.926160
                 8  O                8.522985      -2.939601      -7.958883
                 9  H                7.915684      -1.508058      -7.010373
                10  H                7.863622      -2.652344      -9.631102
                11  O                5.916392       0.881425      -9.768107
                12  H                6.652308       1.565260     -11.285217
                13  H                6.239441       2.166117      -8.517505

 MOPAC ONE- AND TWO-ELECTRON INTEGRALS REQUIRE      2933 WORDS.
 ...... END OF ONE- AND TWO-ELECTRON INTEGRALS......
 STEP CPU TIME =     0.00 TOTAL CPU TIME =          1.4 (      0.0 MIN)
 TOTAL WALL CLOCK TIME=          1.4 SECONDS, CPU UTILIZATION IS   100.00%
 ...... END OF ONE-ELECTRON INTEGRALS ......
 STEP CPU TIME =     0.00 TOTAL CPU TIME =          1.4 (      0.0 MIN)
 TOTAL WALL CLOCK TIME=          1.4 SECONDS, CPU UTILIZATION IS   100.00%

     ----------------------------
     INPUT FOR TESSERA DEFINITION
     ----------------------------
     NTSALL  =        60     MTHALL  =         4
     MTHAUT  =         0     AUTFRE  =    2.0000
     NTSFRZ  =        60     KEEPSM  =         0
     AREAKP  =   10.0000     BONDRY  =    1.0000
     AREATL  =    0.0100

     SPHERE     INITS       METHOD
          1        60       FIXPVA
          2        60       FIXPVA
          3        60       FIXPVA
          4        60       FIXPVA
          5        60       FIXPVA
          6        60       FIXPVA
          7        60       FIXPVA
          8        60       FIXPVA
          9        60       FIXPVA
         10        60       FIXPVA
         11        60       FIXPVA
         12        60       FIXPVA
         13        60       FIXPVA

     ------------------------------
      FIXPVA TESSELLATION FOR PCM
         PEIFENG SU AND HUI LI
     UNIVERSITY OF NEBRASKA-LINCOLN
     ------------------------------


     INPUT FOR CAVITY DEFINITION 
     ---------------------------
   ATOM               COORDINATES                RADIUS       EPS
      1      1.5244      0.2758      0.9322      1.8100     78.3900
      2      2.8090     -0.0679     -0.2077      1.7000     78.3900
      3      2.9288      1.0023     -1.2505      1.7000     78.3900
      4      3.5353      0.8015     -2.3014      1.5000     78.3900
      5      2.5879     -1.0626     -0.6693      1.2000     78.3900
      6      3.7641     -0.1321      0.3748      1.2000     78.3900
      7      2.4596      1.9845     -1.0193      1.2000     78.3900
      8      4.5102     -1.5556     -4.2117      1.5000     78.3900
      9      4.1888     -0.7980     -3.7097      1.2000     78.3900
     10      4.1612     -1.4036     -5.0966      1.2000     78.3900
     11      3.1308      0.4664     -5.1691      1.5000     78.3900
     12      3.5202      0.8283     -5.9719      1.2000     78.3900
     13      3.3018      1.1463     -4.5073      1.2000     78.3900

 MEMORY USED TO GENERATE CAVITY=    262582


 TOTAL NUMBER OF SPHERES=    13
 SPHERE           CENTER  (X,Y,Z) (A)               RADIUS (A)      AREA(A*A)
     1   1.524440000   0.275770000   0.932220000   2.172000000  38.490629521
     2   2.809020000  -0.067940000  -0.207700000   2.040000000   3.656879307
     3   2.928770000   1.002300000  -1.250520000   2.040000000  12.158603639
     4   3.535260000   0.801550000  -2.301408228   1.800000000   8.940844138
     5   2.587890000  -1.062590000  -0.669290000   1.440000000   7.105197463
     6   3.764080000  -0.132120000   0.374830000   1.440000000   8.263641178
     7   2.459600000   1.984550000  -1.019280000   1.440000000   7.030721793
     8   4.510170000  -1.555570000  -4.211660000   1.800000000  20.269614419
     9   4.188800000  -0.798030000  -3.709730000   1.440000000   0.593667052
    10   4.161250000  -1.403560000  -5.096560000   1.440000000   4.865725829
    11   3.130820000   0.466430000  -5.169060000   1.800000000  12.439080284
    12   3.520250000   0.828300000  -5.971880000   1.440000000   9.845727228
    13   3.301770000   1.146260000  -4.507270000   1.440000000   4.786028089

 TOTAL NUMBER OF TESSERAE=     272
 SURFACE AREA=   138.44635994(A**2)    CAVITY VOLUME=    119.35093534 (A**3)
 STEP CPU TIME =     0.00 TOTAL CPU TIME =          1.4 (      0.0 MIN)
 TOTAL WALL CLOCK TIME=          1.4 SECONDS, CPU UTILIZATION IS   100.00%

          THE SOLUTE IS ENCLOSED IN ONE CAVITY
 DONE CHECKING SEPARATION.
 STEP CPU TIME =     0.00 TOTAL CPU TIME =          1.4 (      0.0 MIN)
 TOTAL WALL CLOCK TIME=          1.4 SECONDS, CPU UTILIZATION IS   100.00%
 
 ..... DONE SETTING UP PCM CALCULATION .....
 STEP CPU TIME =     0.00 TOTAL CPU TIME =          1.4 (      0.0 MIN)
 TOTAL WALL CLOCK TIME=          1.4 SECONDS, CPU UTILIZATION IS   100.00%

          --------------------------
               R-AM1 SCF CALCULATION
          --------------------------
     DENSITY MATRIX CONV=  1.00E-05

 ITER EX DEM     TOTAL ENERGY        E CHANGE  DENSITY CHANGE    DIIS ERROR
   1  0  0      -62.0865646276   -62.0865646276   0.002492179   0.000000000
   2  1  0      -62.0865783245    -0.0000136970   0.000931303   0.000000000
   3  2  0      -62.0865800484    -0.0000017239   0.000382280   0.000000000
   4  3  0      -62.0865803665    -0.0000003181   0.000164883   0.000000000
   5  4  0      -62.0865804348    -0.0000000683   0.000073794   0.000000000
   6  5  0      -62.0865804505    -0.0000000157   0.000037647   0.000000000
   7  6  0      -62.0865804545    -0.0000000039   0.000019473   0.000000000
   8  7  0      -62.0865804554    -0.0000000010   0.000010218   0.000000000
   9  8  0      -62.0865804557    -0.0000000003   0.000005447   0.000000000

          -----------------
          DENSITY CONVERGED
          -----------------
     TIME TO FORM FOCK OPERATORS=       0.1 SECONDS (       0.0 SEC/ITER)
     TIME TO SOLVE SCF EQUATIONS=       0.0 SECONDS (       0.0 SEC/ITER)

 FINAL R-AM1 ENERGY IS      -62.0865804557 AFTER   9 ITERATIONS

 HEAT OF FORMATION IS      -182.96289 KCAL/MOL
 
  
   PCM ASC=      0.0394184091
   GCAVP  =      0.0000000000
   GDISP  =      0.0000000000
   GREP   =      0.0000000000
 ...... END OF RHF CALCULATION ......
 STEP CPU TIME =     0.12 TOTAL CPU TIME =          1.5 (      0.0 MIN)
 TOTAL WALL CLOCK TIME=          1.5 SECONDS, CPU UTILIZATION IS   100.00%
 
 .... DONE WITH PCM CONTRIBUTION TO GRADIENT ....
 STEP CPU TIME =     0.01 TOTAL CPU TIME =          1.6 (      0.0 MIN)
 TOTAL WALL CLOCK TIME=          1.6 SECONDS, CPU UTILIZATION IS   100.00%
 STEP CPU TIME =     0.00 TOTAL CPU TIME =          1.6 (      0.0 MIN)
 TOTAL WALL CLOCK TIME=          1.6 SECONDS, CPU UTILIZATION IS   100.00%

 UNITS ARE HARTREE/BOHR    E'X               E'Y               E'Z 
    1 CL              -0.000014379       0.000004464      -0.000040866
    2 C                0.000250650       0.000249271      -0.000654961
    3 C                0.003916802      -0.001448525      -0.007318396
    4 O               -0.004540705       0.001381348       0.008318067
    5 H               -0.000007105      -0.000078358      -0.000048155
    6 H                0.000062061       0.000001860       0.000031775
    7 H                0.000247146      -0.000134093      -0.000237224
    8 O                0.000037507      -0.000006048       0.000006676
    9 H                0.000015165       0.000012110      -0.000001576
   10 H                0.000032621       0.000015311      -0.000002127
   11 O               -0.000142175      -0.000255671       0.000301775
   12 H                0.000127006       0.000181483      -0.000382697
   13 H                0.000015406       0.000076847       0.000027708
  $VIB   
          IVIB=   1 IATOM=   4 ICOORD=   3 E=      -62.0865804557
 -1.437888338E-05 4.464311115E-06-4.086555983E-05 2.506504905E-04 2.492710729E-04
 -6.549605806E-04 3.916802423E-03-1.448524985E-03-7.318395699E-03-4.540705311E-03
  1.381347922E-03 8.318067078E-03-7.105167454E-06-7.835756671E-05-4.815481787E-05
  6.206053578E-05 1.859543784E-06 3.177511677E-05 2.471463398E-04-1.340926185E-04
 -2.372236242E-04 3.750696097E-05-6.048348402E-06 6.675866195E-06 1.516465227E-05
  1.211012797E-05-1.575882256E-06 3.262109355E-05 1.531089881E-05-2.127239932E-06
 -1.421752020E-04-2.556707856E-04 3.017745860E-04 1.270056755E-04 1.814831973E-04
 -3.826973927E-04 1.540639279E-05 7.684722979E-05 2.770814948E-05
 -3.571054881E-01 3.416347288E+00 7.109300669E-01
1   ATOM  5
                                        -------------------
   COORD  1                             NUCLEAR COORDINATES
                                        -------------------
     VIB  1

                       ATOM             X              Y              Z

                 1  CL               2.880774       0.521130       1.761640
                 2  C                5.308278      -0.128388      -0.392496
                 3  C                5.534573       1.894072      -2.363140
                 4  O                6.680673       1.514710      -4.359031
                 5  H                4.900403      -2.008004      -1.264775
                 6  H                7.113080      -0.249671       0.708326
                 7  H                4.647970       3.750256      -1.926160
                 8  O                8.522985      -2.939601      -7.958883
                 9  H                7.915684      -1.508058      -7.010373
                10  H                7.863622      -2.652344      -9.631102
                11  O                5.916392       0.881425      -9.768107
                12  H                6.652308       1.565260     -11.285217
                13  H                6.239441       2.166117      -8.517505

 MOPAC ONE- AND TWO-ELECTRON INTEGRALS REQUIRE      2933 WORDS.
 ...... END OF ONE- AND TWO-ELECTRON INTEGRALS......
 STEP CPU TIME =     0.00 TOTAL CPU TIME =          1.6 (      0.0 MIN)
 TOTAL WALL CLOCK TIME=          1.6 SECONDS, CPU UTILIZATION IS   100.00%
 ...... END OF ONE-ELECTRON INTEGRALS ......
 STEP CPU TIME =     0.00 TOTAL CPU TIME =          1.6 (      0.0 MIN)
 TOTAL WALL CLOCK TIME=          1.6 SECONDS, CPU UTILIZATION IS   100.00%

     ----------------------------
     INPUT FOR TESSERA DEFINITION
     ----------------------------
     NTSALL  =        60     MTHALL  =         4
     MTHAUT  =         0     AUTFRE  =    2.0000
     NTSFRZ  =        60     KEEPSM  =         0
     AREAKP  =   10.0000     BONDRY  =    1.0000
     AREATL  =    0.0100

     SPHERE     INITS       METHOD
          1        60       FIXPVA
          2        60       FIXPVA
          3        60       FIXPVA
          4        60       FIXPVA
          5        60       FIXPVA
          6        60       FIXPVA
          7        60       FIXPVA
          8        60       FIXPVA
          9        60       FIXPVA
         10        60       FIXPVA
         11        60       FIXPVA
         12        60       FIXPVA
         13        60       FIXPVA

     ------------------------------
      FIXPVA TESSELLATION FOR PCM
         PEIFENG SU AND HUI LI
     UNIVERSITY OF NEBRASKA-LINCOLN
     ------------------------------


     INPUT FOR CAVITY DEFINITION 
     ---------------------------
   ATOM               COORDINATES                RADIUS       EPS
      1      1.5244      0.2758      0.9322      1.8100     78.3900
      2      2.8090     -0.0679     -0.2077      1.7000     78.3900
      3      2.9288      1.0023     -1.2505      1.7000     78.3900
      4      3.5353      0.8015     -2.3067      1.5000     78.3900
      5      2.5932     -1.0626     -0.6693      1.2000     78.3900
      6      3.7641     -0.1321      0.3748      1.2000     78.3900
      7      2.4596      1.9845     -1.0193      1.2000     78.3900
      8      4.5102     -1.5556     -4.2117      1.5000     78.3900
      9      4.1888     -0.7980     -3.7097      1.2000     78.3900
     10      4.1612     -1.4036     -5.0966      1.2000     78.3900
     11      3.1308      0.4664     -5.1691      1.5000     78.3900
     12      3.5202      0.8283     -5.9719      1.2000     78.3900
     13      3.3018      1.1463     -4.5073      1.2000     78.3900

 MEMORY USED TO GENERATE CAVITY=    262582


 TOTAL NUMBER OF SPHERES=    13
 SPHERE           CENTER  (X,Y,Z) (A)               RADIUS (A)      AREA(A*A)
     1   1.524440000   0.275770000   0.932220000   2.172000000  38.490630197
     2   2.809020000  -0.067940000  -0.207700000   2.040000000   3.710914097
     3   2.928770000   1.002300000  -1.250520000   2.040000000  12.181771764
     4   3.535260000   0.801550000  -2.306700000   1.800000000   8.979841842
     5   2.593181772  -1.062590000  -0.669290000   1.440000000   7.072063930
     6   3.764080000  -0.132120000   0.374830000   1.440000000   8.265992935
     7   2.459600000   1.984550000  -1.019280000   1.440000000   7.030749145
     8   4.510170000  -1.555570000  -4.211660000   1.800000000  20.264530072
     9   4.188800000  -0.798030000  -3.709730000   1.440000000   0.594018015
    10   4.161250000  -1.403560000  -5.096560000   1.440000000   4.865725829
    11   3.130820000   0.466430000  -5.169060000   1.800000000  12.439258795
    12   3.520250000   0.828300000  -5.971880000   1.440000000   9.845727228
    13   3.301770000   1.146260000  -4.507270000   1.440000000   4.778707327

 TOTAL NUMBER OF TESSERAE=     271
 SURFACE AREA=   138.51993118(A**2)    CAVITY VOLUME=    119.38667192 (A**3)
 STEP CPU TIME =     0.00 TOTAL CPU TIME =          1.6 (      0.0 MIN)
 TOTAL WALL CLOCK TIME=          1.6 SECONDS, CPU UTILIZATION IS   100.00%

          THE SOLUTE IS ENCLOSED IN ONE CAVITY
 DONE CHECKING SEPARATION.
 STEP CPU TIME =     0.00 TOTAL CPU TIME =          1.6 (      0.0 MIN)
 TOTAL WALL CLOCK TIME=          1.6 SECONDS, CPU UTILIZATION IS   100.00%
 
 ..... DONE SETTING UP PCM CALCULATION .....
 STEP CPU TIME =     0.00 TOTAL CPU TIME =          1.6 (      0.0 MIN)
 TOTAL WALL CLOCK TIME=          1.6 SECONDS, CPU UTILIZATION IS   100.00%

          --------------------------
               R-AM1 SCF CALCULATION
          --------------------------
     DENSITY MATRIX CONV=  1.00E-05

 ITER EX DEM     TOTAL ENERGY        E CHANGE  DENSITY CHANGE    DIIS ERROR
   1  0  0      -62.0866169254   -62.0866169254   0.001048239   0.000000000
   2  1  0      -62.0866182055    -0.0000012801   0.000450040   0.000000000
   3  2  0      -62.0866184350    -0.0000002295   0.000200048   0.000000000
   4  3  0      -62.0866184827    -0.0000000476   0.000091600   0.000000000
   5  4  0      -62.0866184939    -0.0000000112   0.000043072   0.000000000
   6  5  0      -62.0866184967    -0.0000000029   0.000020760   0.000000000
   7  6  0      -62.0866184976    -0.0000000009   0.000010243   0.000000000
   8  7  0      -62.0866184979    -0.0000000003   0.000005169   0.000000000

          -----------------
          DENSITY CONVERGED
          -----------------
     TIME TO FORM FOCK OPERATORS=       0.1 SECONDS (       0.0 SEC/ITER)
     TIME TO SOLVE SCF EQUATIONS=       0.0 SECONDS (       0.0 SEC/ITER)

 FINAL R-AM1 ENERGY IS      -62.0866184979 AFTER   8 ITERATIONS

 HEAT OF FORMATION IS      -182.98676 KCAL/MOL
 
  
   PCM ASC=      0.0394022436
   GCAVP  =      0.0000000000
   GDISP  =      0.0000000000
   GREP   =      0.0000000000
 ...... END OF RHF CALCULATION ......
 STEP CPU TIME =     0.10 TOTAL CPU TIME =          1.7 (      0.0 MIN)
 TOTAL WALL CLOCK TIME=          1.7 SECONDS, CPU UTILIZATION IS   100.00%
 
 .... DONE WITH PCM CONTRIBUTION TO GRADIENT ....
 STEP CPU TIME =     0.00 TOTAL CPU TIME =          1.7 (      0.0 MIN)
 TOTAL WALL CLOCK TIME=          1.7 SECONDS, CPU UTILIZATION IS   100.00%
 STEP CPU TIME =     0.00 TOTAL CPU TIME =          1.7 (      0.0 MIN)
 TOTAL WALL CLOCK TIME=          1.7 SECONDS, CPU UTILIZATION IS   100.00%

 UNITS ARE HARTREE/BOHR    E'X               E'Y               E'Z 
    1 CL              -0.000094243       0.000132062       0.000180597
    2 C               -0.000501752      -0.000511240      -0.000184708
    3 C               -0.000033420       0.000030259       0.000039016
    4 O                0.000078389       0.000010281      -0.000148587
    5 H                0.000541034       0.000480549       0.000187016
    6 H               -0.000052448      -0.000201173      -0.000103856
    7 H               -0.000028028       0.000015537       0.000006372
    8 O                0.000033362       0.000006103       0.000022274
    9 H                0.000019572       0.000021020       0.000013313
   10 H                0.000031473       0.000014093      -0.000007476
   11 O               -0.000134714      -0.000249235       0.000332005
   12 H                0.000126843       0.000182857      -0.000387842
   13 H                0.000013931       0.000068888       0.000051875
  $VIB   
          IVIB=   1 IATOM=   5 ICOORD=   1 E=      -62.0866184979
 -9.424314050E-05 1.320615427E-04 1.805971839E-04-5.017515454E-04-5.112403154E-04
 -1.847082097E-04-3.341975574E-05 3.025857333E-05 3.901648359E-05 7.838937646E-05
  1.028097568E-05-1.485865763E-04 5.410339172E-04 4.805493855E-04 1.870162007E-04
 -5.244763378E-05-2.011725707E-04-1.038558865E-04-2.802754359E-05 1.553665576E-05
  6.372157423E-06 3.336228066E-05 6.102520830E-06 2.227433320E-05 1.957223491E-05
  2.102048383E-05 1.331330338E-05 3.147276358E-05 1.409273129E-05-7.476407834E-06
 -1.347143278E-04-2.492349023E-04 3.320051129E-04 1.268427167E-04 1.828565973E-04
 -3.878422255E-04 1.393065737E-05 6.888832226E-05 5.187453076E-05
 -3.511448451E-01 3.416916547E+00 7.163829266E-01
1   ATOM  5
                                        -------------------
   COORD  2                             NUCLEAR COORDINATES
                                        -------------------
     VIB  1

                       ATOM             X              Y              Z

                 1  CL               2.880774       0.521130       1.761640
                 2  C                5.308278      -0.128388      -0.392496
                 3  C                5.534573       1.894072      -2.363140
                 4  O                6.680673       1.514710      -4.359031
                 5  H                4.890403      -1.998004      -1.264775
                 6  H                7.113080      -0.249671       0.708326
                 7  H                4.647970       3.750256      -1.926160
                 8  O                8.522985      -2.939601      -7.958883
                 9  H                7.915684      -1.508058      -7.010373
                10  H                7.863622      -2.652344      -9.631102
                11  O                5.916392       0.881425      -9.768107
                12  H                6.652308       1.565260     -11.285217
                13  H                6.239441       2.166117      -8.517505

 MOPAC ONE- AND TWO-ELECTRON INTEGRALS REQUIRE      2933 WORDS.
 ...... END OF ONE- AND TWO-ELECTRON INTEGRALS......
 STEP CPU TIME =     0.00 TOTAL CPU TIME =          1.7 (      0.0 MIN)
 TOTAL WALL CLOCK TIME=          1.7 SECONDS, CPU UTILIZATION IS   100.00%
 ...... END OF ONE-ELECTRON INTEGRALS ......
 STEP CPU TIME =     0.00 TOTAL CPU TIME =          1.7 (      0.0 MIN)
 TOTAL WALL CLOCK TIME=          1.7 SECONDS, CPU UTILIZATION IS   100.00%

     ----------------------------
     INPUT FOR TESSERA DEFINITION
     ----------------------------
     NTSALL  =        60     MTHALL  =         4
     MTHAUT  =         0     AUTFRE  =    2.0000
     NTSFRZ  =        60     KEEPSM  =         0
     AREAKP  =   10.0000     BONDRY  =    1.0000
     AREATL  =    0.0100

     SPHERE     INITS       METHOD
          1        60       FIXPVA
          2        60       FIXPVA
          3        60       FIXPVA
          4        60       FIXPVA
          5        60       FIXPVA
          6        60       FIXPVA
          7        60       FIXPVA
          8        60       FIXPVA
          9        60       FIXPVA
         10        60       FIXPVA
         11        60       FIXPVA
         12        60       FIXPVA
         13        60       FIXPVA

     ------------------------------
      FIXPVA TESSELLATION FOR PCM
         PEIFENG SU AND HUI LI
     UNIVERSITY OF NEBRASKA-LINCOLN
     ------------------------------


     INPUT FOR CAVITY DEFINITION 
     ---------------------------
   ATOM               COORDINATES                RADIUS       EPS
      1      1.5244      0.2758      0.9322      1.8100     78.3900
      2      2.8090     -0.0679     -0.2077      1.7000     78.3900
      3      2.9288      1.0023     -1.2505      1.7000     78.3900
      4      3.5353      0.8015     -2.3067      1.5000     78.3900
      5      2.5879     -1.0573     -0.6693      1.2000     78.3900
      6      3.7641     -0.1321      0.3748      1.2000     78.3900
      7      2.4596      1.9845     -1.0193      1.2000     78.3900
      8      4.5102     -1.5556     -4.2117      1.5000     78.3900
      9      4.1888     -0.7980     -3.7097      1.2000     78.3900
     10      4.1612     -1.4036     -5.0966      1.2000     78.3900
     11      3.1308      0.4664     -5.1691      1.5000     78.3900
     12      3.5202      0.8283     -5.9719      1.2000     78.3900
     13      3.3018      1.1463     -4.5073      1.2000     78.3900

 MEMORY USED TO GENERATE CAVITY=    262582


 TOTAL NUMBER OF SPHERES=    13
 SPHERE           CENTER  (X,Y,Z) (A)               RADIUS (A)      AREA(A*A)
     1   1.524440000   0.275770000   0.932220000   2.172000000  38.490629550
     2   2.809020000  -0.067940000  -0.207700000   2.040000000   3.651601474
     3   2.928770000   1.002300000  -1.250520000   2.040000000  12.181771764
     4   3.535260000   0.801550000  -2.306700000   1.800000000   8.982066765
     5   2.587890000  -1.057298228  -0.669290000   1.440000000   7.073666660
     6   3.764080000  -0.132120000   0.374830000   1.440000000   8.266247842
     7   2.459600000   1.984550000  -1.019280000   1.440000000   7.030749145
     8   4.510170000  -1.555570000  -4.211660000   1.800000000  20.274833703
     9   4.188800000  -0.798030000  -3.709730000   1.440000000   0.594097604
    10   4.161250000  -1.403560000  -5.096560000   1.440000000   4.865725829
    11   3.130820000   0.466430000  -5.169060000   1.800000000  12.439258795
    12   3.520250000   0.828300000  -5.971880000   1.440000000   9.845727228
    13   3.301770000   1.146260000  -4.507270000   1.440000000   4.778707327

 TOTAL NUMBER OF TESSERAE=     272
 SURFACE AREA=   138.47508369(A**2)    CAVITY VOLUME=    119.37629523 (A**3)
 STEP CPU TIME =     0.00 TOTAL CPU TIME =          1.7 (      0.0 MIN)
 TOTAL WALL CLOCK TIME=          1.7 SECONDS, CPU UTILIZATION IS   100.00%

          THE SOLUTE IS ENCLOSED IN ONE CAVITY
 DONE CHECKING SEPARATION.
 STEP CPU TIME =     0.00 TOTAL CPU TIME =          1.7 (      0.0 MIN)
 TOTAL WALL CLOCK TIME=          1.7 SECONDS, CPU UTILIZATION IS   100.00%
 
 ..... DONE SETTING UP PCM CALCULATION .....
 STEP CPU TIME =     0.00 TOTAL CPU TIME =          1.7 (      0.0 MIN)
 TOTAL WALL CLOCK TIME=          1.7 SECONDS, CPU UTILIZATION IS   100.00%

          --------------------------
               R-AM1 SCF CALCULATION
          --------------------------
     DENSITY MATRIX CONV=  1.00E-05

 ITER EX DEM     TOTAL ENERGY        E CHANGE  DENSITY CHANGE    DIIS ERROR
   1  0  0      -62.0866063773   -62.0866063773   0.000704077   0.000000000
   2  1  0      -62.0866078945    -0.0000015172   0.000176838   0.000000000
   3  2  0      -62.0866080214    -0.0000001269   0.000070105   0.000000000
   4  3  0      -62.0866080390    -0.0000000176   0.000033957   0.000000000
   5  4  0      -62.0866080426    -0.0000000035   0.000016369   0.000000000
   6  5  0      -62.0866080434    -0.0000000009   0.000007931   0.000000000
   7  6  0      -62.0866080437    -0.0000000002   0.000005573   0.000000000

          -----------------
          DENSITY CONVERGED
          -----------------
     TIME TO FORM FOCK OPERATORS=       0.1 SECONDS (       0.0 SEC/ITER)
     TIME TO SOLVE SCF EQUATIONS=       0.0 SECONDS (       0.0 SEC/ITER)

 FINAL R-AM1 ENERGY IS      -62.0866080437 AFTER   7 ITERATIONS

 HEAT OF FORMATION IS      -182.98020 KCAL/MOL
 
  
   PCM ASC=      0.0394169132
   GCAVP  =      0.0000000000
   GDISP  =      0.0000000000
   GREP   =      0.0000000000
 ...... END OF RHF CALCULATION ......
 STEP CPU TIME =     0.08 TOTAL CPU TIME =          1.7 (      0.0 MIN)
 TOTAL WALL CLOCK TIME=          1.7 SECONDS, CPU UTILIZATION IS   100.00%
 
 .... DONE WITH PCM CONTRIBUTION TO GRADIENT ....
 STEP CPU TIME =     0.00 TOTAL CPU TIME =          1.7 (      0.0 MIN)
 TOTAL WALL CLOCK TIME=          1.7 SECONDS, CPU UTILIZATION IS   100.00%
 STEP CPU TIME =     0.00 TOTAL CPU TIME =          1.8 (      0.0 MIN)
 TOTAL WALL CLOCK TIME=          1.8 SECONDS, CPU UTILIZATION IS   100.00%

 UNITS ARE HARTREE/BOHR    E'X               E'Y               E'Z 
    1 CL               0.000009023      -0.000078898      -0.000083520
    2 C               -0.000523832      -0.002384826      -0.000886375
    3 C               -0.000164095      -0.000272058       0.000097622
    4 O                0.000092022       0.000009393      -0.000160943
    5 H                0.000550219       0.002699721       0.001014511
    6 H               -0.000032658      -0.000024299      -0.000023911
    7 H               -0.000021203       0.000007794       0.000018409
    8 O                0.000034232       0.000005831       0.000019816
    9 H                0.000018747       0.000020873       0.000015192
   10 H                0.000031505       0.000014195      -0.000007067
   11 O               -0.000135004      -0.000249016       0.000331348
   12 H                0.000126878       0.000182834      -0.000387689
   13 H                0.000014166       0.000068455       0.000052607
  $VIB   
          IVIB=   1 IATOM=   5 ICOORD=   2 E=      -62.0866080437
  9.023314200E-06-7.889840617E-05-8.351967118E-05-5.238319604E-04-2.384825841E-03
 -8.863746252E-04-1.640952294E-04-2.720579097E-04 9.762229241E-05 9.202165025E-05
  9.392953362E-06-1.609431458E-04 5.502185881E-04 2.699721294E-03 1.014511319E-03
 -3.265756481E-05-2.429855001E-05-2.391084576E-05-2.120300253E-05 7.794434291E-06
  1.840852745E-05 3.423225916E-05 5.830534874E-06 1.981622220E-05 1.874686518E-05
  2.087263961E-05 1.519183479E-05 3.150520180E-05 1.419505176E-05-7.067316102E-06
 -1.350041150E-04-2.490157532E-04 3.313478728E-04 1.268777383E-04 1.828341283E-04
 -3.876890637E-04 1.416625505E-05 6.845542384E-05 5.260659937E-05
 -3.569100908E-01 3.420398299E+00 7.147399341E-01
1   ATOM  5
                                        -------------------
   COORD  3                             NUCLEAR COORDINATES
                                        -------------------
     VIB  1

                       ATOM             X              Y              Z

                 1  CL               2.880774       0.521130       1.761640
                 2  C                5.308278      -0.128388      -0.392496
                 3  C                5.534573       1.894072      -2.363140
                 4  O                6.680673       1.514710      -4.359031
                 5  H                4.890403      -2.008004      -1.254775
                 6  H                7.113080      -0.249671       0.708326
                 7  H                4.647970       3.750256      -1.926160
                 8  O                8.522985      -2.939601      -7.958883
                 9  H                7.915684      -1.508058      -7.010373
                10  H                7.863622      -2.652344      -9.631102
                11  O                5.916392       0.881425      -9.768107
                12  H                6.652308       1.565260     -11.285217
                13  H                6.239441       2.166117      -8.517505

 MOPAC ONE- AND TWO-ELECTRON INTEGRALS REQUIRE      2933 WORDS.
 ...... END OF ONE- AND TWO-ELECTRON INTEGRALS......
 STEP CPU TIME =     0.00 TOTAL CPU TIME =          1.8 (      0.0 MIN)
 TOTAL WALL CLOCK TIME=          1.8 SECONDS, CPU UTILIZATION IS   100.00%
 ...... END OF ONE-ELECTRON INTEGRALS ......
 STEP CPU TIME =     0.00 TOTAL CPU TIME =          1.8 (      0.0 MIN)
 TOTAL WALL CLOCK TIME=          1.8 SECONDS, CPU UTILIZATION IS   100.00%

     ----------------------------
     INPUT FOR TESSERA DEFINITION
     ----------------------------
     NTSALL  =        60     MTHALL  =         4
     MTHAUT  =         0     AUTFRE  =    2.0000
     NTSFRZ  =        60     KEEPSM  =         0
     AREAKP  =   10.0000     BONDRY  =    1.0000
     AREATL  =    0.0100

     SPHERE     INITS       METHOD
          1        60       FIXPVA
          2        60       FIXPVA
          3        60       FIXPVA
          4        60       FIXPVA
          5        60       FIXPVA
          6        60       FIXPVA
          7        60       FIXPVA
          8        60       FIXPVA
          9        60       FIXPVA
         10        60       FIXPVA
         11        60       FIXPVA
         12        60       FIXPVA
         13        60       FIXPVA

     ------------------------------
      FIXPVA TESSELLATION FOR PCM
         PEIFENG SU AND HUI LI
     UNIVERSITY OF NEBRASKA-LINCOLN
     ------------------------------


     INPUT FOR CAVITY DEFINITION 
     ---------------------------
   ATOM               COORDINATES                RADIUS       EPS
      1      1.5244      0.2758      0.9322      1.8100     78.3900
      2      2.8090     -0.0679     -0.2077      1.7000     78.3900
      3      2.9288      1.0023     -1.2505      1.7000     78.3900
      4      3.5353      0.8015     -2.3067      1.5000     78.3900
      5      2.5879     -1.0626     -0.6640      1.2000     78.3900
      6      3.7641     -0.1321      0.3748      1.2000     78.3900
      7      2.4596      1.9845     -1.0193      1.2000     78.3900
      8      4.5102     -1.5556     -4.2117      1.5000     78.3900
      9      4.1888     -0.7980     -3.7097      1.2000     78.3900
     10      4.1612     -1.4036     -5.0966      1.2000     78.3900
     11      3.1308      0.4664     -5.1691      1.5000     78.3900
     12      3.5202      0.8283     -5.9719      1.2000     78.3900
     13      3.3018      1.1463     -4.5073      1.2000     78.3900

 MEMORY USED TO GENERATE CAVITY=    262582


 TOTAL NUMBER OF SPHERES=    13
 SPHERE           CENTER  (X,Y,Z) (A)               RADIUS (A)      AREA(A*A)
     1   1.524440000   0.275770000   0.932220000   2.172000000  38.490629525
     2   2.809020000  -0.067940000  -0.207700000   2.040000000   3.681439568
     3   2.928770000   1.002300000  -1.250520000   2.040000000  12.181771764
     4   3.535260000   0.801550000  -2.306700000   1.800000000   8.983145636
     5   2.587890000  -1.062590000  -0.663998228   1.440000000   7.081947050
     6   3.764080000  -0.132120000   0.374830000   1.440000000   8.266120000
     7   2.459600000   1.984550000  -1.019280000   1.440000000   7.030749145
     8   4.510170000  -1.555570000  -4.211660000   1.800000000  20.276791382
     9   4.188800000  -0.798030000  -3.709730000   1.440000000   0.594181500
    10   4.161250000  -1.403560000  -5.096560000   1.440000000   4.865725829
    11   3.130820000   0.466430000  -5.169060000   1.800000000  12.439258795
    12   3.520250000   0.828300000  -5.971880000   1.440000000   9.845727228
    13   3.301770000   1.146260000  -4.507270000   1.440000000   4.778707327

 TOTAL NUMBER OF TESSERAE=     272
 SURFACE AREA=   138.51619475(A**2)    CAVITY VOLUME=    119.38255798 (A**3)
 STEP CPU TIME =     0.00 TOTAL CPU TIME =          1.8 (      0.0 MIN)
 TOTAL WALL CLOCK TIME=          1.8 SECONDS, CPU UTILIZATION IS   100.00%

          THE SOLUTE IS ENCLOSED IN ONE CAVITY
 DONE CHECKING SEPARATION.
 STEP CPU TIME =     0.00 TOTAL CPU TIME =          1.8 (      0.0 MIN)
 TOTAL WALL CLOCK TIME=          1.8 SECONDS, CPU UTILIZATION IS   100.00%
 
 ..... DONE SETTING UP PCM CALCULATION .....
 STEP CPU TIME =     0.00 TOTAL CPU TIME =          1.8 (      0.0 MIN)
 TOTAL WALL CLOCK TIME=          1.8 SECONDS, CPU UTILIZATION IS   100.00%

          --------------------------
               R-AM1 SCF CALCULATION
          --------------------------
     DENSITY MATRIX CONV=  1.00E-05

 ITER EX DEM     TOTAL ENERGY        E CHANGE  DENSITY CHANGE    DIIS ERROR
   1  0  0      -62.0866151933   -62.0866151933   0.000904506   0.000000000
   2  1  0      -62.0866165196    -0.0000013263   0.000375362   0.000000000
   3  2  0      -62.0866167169    -0.0000001973   0.000164750   0.000000000
   4  3  0      -62.0866167554    -0.0000000385   0.000075560   0.000000000
   5  4  0      -62.0866167646    -0.0000000091   0.000035904   0.000000000
   6  5  0      -62.0866167671    -0.0000000025   0.000017581   0.000000000
   7  6  0      -62.0866167679    -0.0000000008   0.000008843   0.000000000
   8  7  0      -62.0866167682    -0.0000000003   0.000005306   0.000000000

          -----------------
          DENSITY CONVERGED
          -----------------
     TIME TO FORM FOCK OPERATORS=       0.1 SECONDS (       0.0 SEC/ITER)
     TIME TO SOLVE SCF EQUATIONS=       0.0 SECONDS (       0.0 SEC/ITER)

 FINAL R-AM1 ENERGY IS      -62.0866167682 AFTER   8 ITERATIONS

 HEAT OF FORMATION IS      -182.98568 KCAL/MOL
 
  
   PCM ASC=      0.0394085715
   GCAVP  =      0.0000000000
   GDISP  =      0.0000000000
   GREP   =      0.0000000000
 ...... END OF RHF CALCULATION ......
 STEP CPU TIME =     0.10 TOTAL CPU TIME =          1.9 (      0.0 MIN)
 TOTAL WALL CLOCK TIME=          1.9 SECONDS, CPU UTILIZATION IS   100.00%
 
 .... DONE WITH PCM CONTRIBUTION TO GRADIENT ....
 STEP CPU TIME =     0.02 TOTAL CPU TIME =          1.9 (      0.0 MIN)
 TOTAL WALL CLOCK TIME=          1.9 SECONDS, CPU UTILIZATION IS   100.00%
 STEP CPU TIME =     0.00 TOTAL CPU TIME =          1.9 (      0.0 MIN)
 TOTAL WALL CLOCK TIME=          1.9 SECONDS, CPU UTILIZATION IS   100.00%

 UNITS ARE HARTREE/BOHR    E'X               E'Y               E'Z 
    1 CL               0.000060615      -0.000189140      -0.000129346
    2 C               -0.000287985      -0.000940123      -0.000723238
    3 C               -0.000047101       0.000255106       0.000136425
    4 O                0.000089365       0.000004230      -0.000171668
    5 H                0.000207138       0.000962206       0.000905444
    6 H               -0.000077673      -0.000156526      -0.000028001
    7 H               -0.000035117       0.000021523      -0.000014031
    8 O                0.000034411       0.000005739       0.000020034
    9 H                0.000018833       0.000020477       0.000015316
   10 H                0.000031465       0.000014205      -0.000007181
   11 O               -0.000134880      -0.000249059       0.000331462
   12 H                0.000126862       0.000182828      -0.000387718
   13 H                0.000014068       0.000068533       0.000052502
  $VIB   
          IVIB=   1 IATOM=   5 ICOORD=   3 E=      -62.0866167682
  6.061473006E-05-1.891396101E-04-1.293464739E-04-2.879851099E-04-9.401229221E-04
 -7.232375845E-04-4.710124699E-05 2.551060387E-04 1.364250702E-04 8.936521755E-05
  4.230495285E-06-1.716677329E-04 2.071380418E-04 9.622057375E-04 9.054443615E-04
 -7.767346122E-05-1.565255432E-04-2.800147631E-05-3.511748790E-05 2.152320111E-05
 -1.403086632E-05 3.441093391E-05 5.739218823E-06 2.003367764E-05 1.883296251E-05
  2.047717736E-05 1.531605090E-05 3.146476574E-05 1.420468666E-05-7.181412679E-06
 -1.348796412E-04-2.490593208E-04 3.314617080E-04 1.268622368E-04 1.828276479E-04
 -3.877176239E-04 1.406805879E-05 6.853319288E-05 5.250230224E-05
 -3.558775767E-01 3.416466889E+00 7.215371735E-01
1   ATOM  6
                                        -------------------
   COORD  1                             NUCLEAR COORDINATES
                                        -------------------
     VIB  1

                       ATOM             X              Y              Z

                 1  CL               2.880774       0.521130       1.761640
                 2  C                5.308278      -0.128388      -0.392496
                 3  C                5.534573       1.894072      -2.363140
                 4  O                6.680673       1.514710      -4.359031
                 5  H                4.890403      -2.008004      -1.264775
                 6  H                7.123080      -0.249671       0.708326
                 7  H                4.647970       3.750256      -1.926160
                 8  O                8.522985      -2.939601      -7.958883
                 9  H                7.915684      -1.508058      -7.010373
                10  H                7.863622      -2.652344      -9.631102
                11  O                5.916392       0.881425      -9.768107
                12  H                6.652308       1.565260     -11.285217
                13  H                6.239441       2.166117      -8.517505

 MOPAC ONE- AND TWO-ELECTRON INTEGRALS REQUIRE      2933 WORDS.
 ...... END OF ONE- AND TWO-ELECTRON INTEGRALS......
 STEP CPU TIME =     0.00 TOTAL CPU TIME =          1.9 (      0.0 MIN)
 TOTAL WALL CLOCK TIME=          1.9 SECONDS, CPU UTILIZATION IS   100.00%
 ...... END OF ONE-ELECTRON INTEGRALS ......
 STEP CPU TIME =     0.00 TOTAL CPU TIME =          1.9 (      0.0 MIN)
 TOTAL WALL CLOCK TIME=          1.9 SECONDS, CPU UTILIZATION IS   100.00%

     ----------------------------
     INPUT FOR TESSERA DEFINITION
     ----------------------------
     NTSALL  =        60     MTHALL  =         4
     MTHAUT  =         0     AUTFRE  =    2.0000
     NTSFRZ  =        60     KEEPSM  =         0
     AREAKP  =   10.0000     BONDRY  =    1.0000
     AREATL  =    0.0100

     SPHERE     INITS       METHOD
          1        60       FIXPVA
          2        60       FIXPVA
          3        60       FIXPVA
          4        60       FIXPVA
          5        60       FIXPVA
          6        60       FIXPVA
          7        60       FIXPVA
          8        60       FIXPVA
          9        60       FIXPVA
         10        60       FIXPVA
         11        60       FIXPVA
         12        60       FIXPVA
         13        60       FIXPVA

     ------------------------------
      FIXPVA TESSELLATION FOR PCM
         PEIFENG SU AND HUI LI
     UNIVERSITY OF NEBRASKA-LINCOLN
     ------------------------------


     INPUT FOR CAVITY DEFINITION 
     ---------------------------
   ATOM               COORDINATES                RADIUS       EPS
      1      1.5244      0.2758      0.9322      1.8100     78.3900
      2      2.8090     -0.0679     -0.2077      1.7000     78.3900
      3      2.9288      1.0023     -1.2505      1.7000     78.3900
      4      3.5353      0.8015     -2.3067      1.5000     78.3900
      5      2.5879     -1.0626     -0.6693      1.2000     78.3900
      6      3.7694     -0.1321      0.3748      1.2000     78.3900
      7      2.4596      1.9845     -1.0193      1.2000     78.3900
      8      4.5102     -1.5556     -4.2117      1.5000     78.3900
      9      4.1888     -0.7980     -3.7097      1.2000     78.3900
     10      4.1612     -1.4036     -5.0966      1.2000     78.3900
     11      3.1308      0.4664     -5.1691      1.5000     78.3900
     12      3.5202      0.8283     -5.9719      1.2000     78.3900
     13      3.3018      1.1463     -4.5073      1.2000     78.3900

 MEMORY USED TO GENERATE CAVITY=    262582


 TOTAL NUMBER OF SPHERES=    13
 SPHERE           CENTER  (X,Y,Z) (A)               RADIUS (A)      AREA(A*A)
     1   1.524440000   0.275770000   0.932220000   2.172000000  38.490629521
     2   2.809020000  -0.067940000  -0.207700000   2.040000000   3.656806047
     3   2.928770000   1.002300000  -1.250520000   2.040000000  12.181771764
     4   3.535260000   0.801550000  -2.306700000   1.800000000   8.974416981
     5   2.587890000  -1.062590000  -0.669290000   1.440000000   7.103966589
     6   3.769371772  -0.132120000   0.374830000   1.440000000   8.303930277
     7   2.459600000   1.984550000  -1.019280000   1.440000000   7.030749145
     8   4.510170000  -1.555570000  -4.211660000   1.800000000  20.269614417
     9   4.188800000  -0.798030000  -3.709730000   1.440000000   0.594081452
    10   4.161250000  -1.403560000  -5.096560000   1.440000000   4.865725829
    11   3.130820000   0.466430000  -5.169060000   1.800000000  12.439258795
    12   3.520250000   0.828300000  -5.971880000   1.440000000   9.845727228
    13   3.301770000   1.146260000  -4.507270000   1.440000000   4.778707327

 TOTAL NUMBER OF TESSERAE=     272
 SURFACE AREA=   138.53538537(A**2)    CAVITY VOLUME=    119.44315740 (A**3)
 STEP CPU TIME =     0.00 TOTAL CPU TIME =          1.9 (      0.0 MIN)
 TOTAL WALL CLOCK TIME=          1.9 SECONDS, CPU UTILIZATION IS   100.00%

          THE SOLUTE IS ENCLOSED IN ONE CAVITY
 DONE CHECKING SEPARATION.
 STEP CPU TIME =     0.00 TOTAL CPU TIME =          1.9 (      0.0 MIN)
 TOTAL WALL CLOCK TIME=          1.9 SECONDS, CPU UTILIZATION IS   100.00%
 
 ..... DONE SETTING UP PCM CALCULATION .....
 STEP CPU TIME =     0.00 TOTAL CPU TIME =          1.9 (      0.0 MIN)
 TOTAL WALL CLOCK TIME=          1.9 SECONDS, CPU UTILIZATION IS   100.00%

          --------------------------
               R-AM1 SCF CALCULATION
          --------------------------
     DENSITY MATRIX CONV=  1.00E-05

 ITER EX DEM     TOTAL ENERGY        E CHANGE  DENSITY CHANGE    DIIS ERROR
   1  0  0      -62.0866066259   -62.0866066259   0.000705486   0.000000000
   2  1  0      -62.0866081875    -0.0000015616   0.000179832   0.000000000
   3  2  0      -62.0866083273    -0.0000001398   0.000075948   0.000000000
   4  3  0      -62.0866083475    -0.0000000203   0.000039182   0.000000000
   5  4  0      -62.0866083520    -0.0000000045   0.000023516   0.000000000
   6  5  0      -62.0866083532    -0.0000000012   0.000014633   0.000000000
   7  6  0      -62.0866083537    -0.0000000004   0.000009034   0.000000000
   8  7  0      -62.0866083538    -0.0000000001   0.000005546   0.000000000

          -----------------
          DENSITY CONVERGED
          -----------------
     TIME TO FORM FOCK OPERATORS=       0.1 SECONDS (       0.0 SEC/ITER)
     TIME TO SOLVE SCF EQUATIONS=       0.0 SECONDS (       0.0 SEC/ITER)

 FINAL R-AM1 ENERGY IS      -62.0866083538 AFTER   8 ITERATIONS

 HEAT OF FORMATION IS      -182.98040 KCAL/MOL
 
  
   PCM ASC=      0.0393891749
   GCAVP  =      0.0000000000
   GDISP  =      0.0000000000
   GREP   =      0.0000000000
 ...... END OF RHF CALCULATION ......
 STEP CPU TIME =     0.10 TOTAL CPU TIME =          2.0 (      0.0 MIN)
 TOTAL WALL CLOCK TIME=          2.0 SECONDS, CPU UTILIZATION IS   100.00%
 
 .... DONE WITH PCM CONTRIBUTION TO GRADIENT ....
 STEP CPU TIME =     0.02 TOTAL CPU TIME =          2.0 (      0.0 MIN)
 TOTAL WALL CLOCK TIME=          2.0 SECONDS, CPU UTILIZATION IS   100.00%
 STEP CPU TIME =     0.00 TOTAL CPU TIME =          2.0 (      0.0 MIN)
 TOTAL WALL CLOCK TIME=          2.0 SECONDS, CPU UTILIZATION IS   100.00%

 UNITS ARE HARTREE/BOHR    E'X               E'Y               E'Z 
    1 CL              -0.000314499       0.000022176       0.000048977
    2 C               -0.002168480       0.000038707      -0.001022317
    3 C               -0.000063600       0.000153090      -0.000087889
    4 O                0.000066171       0.000007026      -0.000124330
    5 H               -0.000097253      -0.000135969      -0.000139592
    6 H                0.002519185      -0.000138265       0.001294228
    7 H               -0.000032450       0.000009876       0.000007441
    8 O                0.000033568       0.000006347       0.000022083
    9 H                0.000019906       0.000020028       0.000013278
   10 H                0.000031454       0.000014115      -0.000007606
   11 O               -0.000134601      -0.000249276       0.000332640
   12 H                0.000126829       0.000182867      -0.000387980
   13 H                0.000013771       0.000069278       0.000051067
  $VIB   
          IVIB=   1 IATOM=   6 ICOORD=   1 E=      -62.0866083538
 -3.144989439E-04 2.217567772E-05 4.897682307E-05-2.168479740E-03 3.870662744E-05
 -1.022316558E-03-6.360026411E-05 1.530903461E-04-8.788869148E-05 6.617110705E-05
  7.026352570E-06-1.243300503E-04-9.725338035E-05-1.359687851E-04-1.395924956E-04
  2.519184660E-03-1.382652690E-04 1.294228376E-03-3.245048179E-05 9.876348676E-06
  7.440608152E-06 3.356777512E-05 6.346684075E-06 2.208327807E-05 1.990611593E-05
  2.002838313E-05 1.327838737E-05 3.145385778E-05 1.411543393E-05-7.606357912E-06
 -1.346006649E-04-2.492764952E-04 3.326396591E-04 1.268290506E-04 1.828671128E-04
 -3.879798987E-04 1.377090874E-05 6.927758289E-05 5.106692032E-05
 -3.534666025E-01 3.418809723E+00 7.149509104E-01
1   ATOM  6
                                        -------------------
   COORD  2                             NUCLEAR COORDINATES
                                        -------------------
     VIB  1

                       ATOM             X              Y              Z

                 1  CL               2.880774       0.521130       1.761640
                 2  C                5.308278      -0.128388      -0.392496
                 3  C                5.534573       1.894072      -2.363140
                 4  O                6.680673       1.514710      -4.359031
                 5  H                4.890403      -2.008004      -1.264775
                 6  H                7.113080      -0.239671       0.708326
                 7  H                4.647970       3.750256      -1.926160
                 8  O                8.522985      -2.939601      -7.958883
                 9  H                7.915684      -1.508058      -7.010373
                10  H                7.863622      -2.652344      -9.631102
                11  O                5.916392       0.881425      -9.768107
                12  H                6.652308       1.565260     -11.285217
                13  H                6.239441       2.166117      -8.517505

 MOPAC ONE- AND TWO-ELECTRON INTEGRALS REQUIRE      2933 WORDS.
 ...... END OF ONE- AND TWO-ELECTRON INTEGRALS......
 STEP CPU TIME =     0.00 TOTAL CPU TIME =          2.0 (      0.0 MIN)
 TOTAL WALL CLOCK TIME=          2.0 SECONDS, CPU UTILIZATION IS   100.00%
 ...... END OF ONE-ELECTRON INTEGRALS ......
 STEP CPU TIME =     0.00 TOTAL CPU TIME =          2.0 (      0.0 MIN)
 TOTAL WALL CLOCK TIME=          2.0 SECONDS, CPU UTILIZATION IS   100.00%

     ----------------------------
     INPUT FOR TESSERA DEFINITION
     ----------------------------
     NTSALL  =        60     MTHALL  =         4
     MTHAUT  =         0     AUTFRE  =    2.0000
     NTSFRZ  =        60     KEEPSM  =         0
     AREAKP  =   10.0000     BONDRY  =    1.0000
     AREATL  =    0.0100

     SPHERE     INITS       METHOD
          1        60       FIXPVA
          2        60       FIXPVA
          3        60       FIXPVA
          4        60       FIXPVA
          5        60       FIXPVA
          6        60       FIXPVA
          7        60       FIXPVA
          8        60       FIXPVA
          9        60       FIXPVA
         10        60       FIXPVA
         11        60       FIXPVA
         12        60       FIXPVA
         13        60       FIXPVA

     ------------------------------
      FIXPVA TESSELLATION FOR PCM
         PEIFENG SU AND HUI LI
     UNIVERSITY OF NEBRASKA-LINCOLN
     ------------------------------


     INPUT FOR CAVITY DEFINITION 
     ---------------------------
   ATOM               COORDINATES                RADIUS       EPS
      1      1.5244      0.2758      0.9322      1.8100     78.3900
      2      2.8090     -0.0679     -0.2077      1.7000     78.3900
      3      2.9288      1.0023     -1.2505      1.7000     78.3900
      4      3.5353      0.8015     -2.3067      1.5000     78.3900
      5      2.5879     -1.0626     -0.6693      1.2000     78.3900
      6      3.7641     -0.1268      0.3748      1.2000     78.3900
      7      2.4596      1.9845     -1.0193      1.2000     78.3900
      8      4.5102     -1.5556     -4.2117      1.5000     78.3900
      9      4.1888     -0.7980     -3.7097      1.2000     78.3900
     10      4.1612     -1.4036     -5.0966      1.2000     78.3900
     11      3.1308      0.4664     -5.1691      1.5000     78.3900
     12      3.5202      0.8283     -5.9719      1.2000     78.3900
     13      3.3018      1.1463     -4.5073      1.2000     78.3900

 MEMORY USED TO GENERATE CAVITY=    262582


 TOTAL NUMBER OF SPHERES=    13
 SPHERE           CENTER  (X,Y,Z) (A)               RADIUS (A)      AREA(A*A)
     1   1.524440000   0.275770000   0.932220000   2.172000000  38.490629521
     2   2.809020000  -0.067940000  -0.207700000   2.040000000   3.657512313
     3   2.928770000   1.002300000  -1.250520000   2.040000000  12.181771764
     4   3.535260000   0.801550000  -2.306700000   1.800000000   8.978409360
     5   2.587890000  -1.062590000  -0.669290000   1.440000000   7.103966589
     6   3.764080000  -0.126828228   0.374830000   1.440000000   8.272524584
     7   2.459600000   1.984550000  -1.019280000   1.440000000   7.030749145
     8   4.510170000  -1.555570000  -4.211660000   1.800000000  20.269614417
     9   4.188800000  -0.798030000  -3.709730000   1.440000000   0.594081452
    10   4.161250000  -1.403560000  -5.096560000   1.440000000   4.865725829
    11   3.130820000   0.466430000  -5.169060000   1.800000000  12.439258795
    12   3.520250000   0.828300000  -5.971880000   1.440000000   9.845727228
    13   3.301770000   1.146260000  -4.507270000   1.440000000   4.778707327

 TOTAL NUMBER OF TESSERAE=     272
 SURFACE AREA=   138.50867832(A**2)    CAVITY VOLUME=    119.39740156 (A**3)
 STEP CPU TIME =     0.00 TOTAL CPU TIME =          2.0 (      0.0 MIN)
 TOTAL WALL CLOCK TIME=          2.0 SECONDS, CPU UTILIZATION IS   100.00%

          THE SOLUTE IS ENCLOSED IN ONE CAVITY
 DONE CHECKING SEPARATION.
 STEP CPU TIME =     0.00 TOTAL CPU TIME =          2.0 (      0.0 MIN)
 TOTAL WALL CLOCK TIME=          2.0 SECONDS, CPU UTILIZATION IS   100.00%
 
 ..... DONE SETTING UP PCM CALCULATION .....
 STEP CPU TIME =     0.00 TOTAL CPU TIME =          2.0 (      0.0 MIN)
 TOTAL WALL CLOCK TIME=          2.0 SECONDS, CPU UTILIZATION IS   100.00%

          --------------------------
               R-AM1 SCF CALCULATION
          --------------------------
     DENSITY MATRIX CONV=  1.00E-05

 ITER EX DEM     TOTAL ENERGY        E CHANGE  DENSITY CHANGE    DIIS ERROR
   1  0  0      -62.0866175927   -62.0866175927   0.001057104   0.000000000
   2  1  0      -62.0866188430    -0.0000012502   0.000464941   0.000000000
   3  2  0      -62.0866190765    -0.0000002336   0.000211406   0.000000000
   4  3  0      -62.0866191271    -0.0000000506   0.000098657   0.000000000
   5  4  0      -62.0866191394    -0.0000000123   0.000047101   0.000000000
   6  5  0      -62.0866191428    -0.0000000034   0.000022995   0.000000000
   7  6  0      -62.0866191440    -0.0000000011   0.000012224   0.000000000
   8  7  0      -62.0866191444    -0.0000000004   0.000009230   0.000000000
   9  8  0      -62.0866191446    -0.0000000002   0.000006892   0.000000000

          -----------------
          DENSITY CONVERGED
          -----------------
     TIME TO FORM FOCK OPERATORS=       0.1 SECONDS (       0.0 SEC/ITER)
     TIME TO SOLVE SCF EQUATIONS=       0.0 SECONDS (       0.0 SEC/ITER)

 FINAL R-AM1 ENERGY IS      -62.0866191446 AFTER   9 ITERATIONS

 HEAT OF FORMATION IS      -182.98717 KCAL/MOL
 
  
   PCM ASC=      0.0394055422
   GCAVP  =      0.0000000000
   GDISP  =      0.0000000000
   GREP   =      0.0000000000
 ...... END OF RHF CALCULATION ......
 STEP CPU TIME =     0.10 TOTAL CPU TIME =          2.1 (      0.0 MIN)
 TOTAL WALL CLOCK TIME=          2.1 SECONDS, CPU UTILIZATION IS   100.00%
 
 .... DONE WITH PCM CONTRIBUTION TO GRADIENT ....
 STEP CPU TIME =     0.00 TOTAL CPU TIME =          2.1 (      0.0 MIN)
 TOTAL WALL CLOCK TIME=          2.1 SECONDS, CPU UTILIZATION IS   100.00%
 STEP CPU TIME =     0.00 TOTAL CPU TIME =          2.1 (      0.0 MIN)
 TOTAL WALL CLOCK TIME=          2.1 SECONDS, CPU UTILIZATION IS   100.00%

 UNITS ARE HARTREE/BOHR    E'X               E'Y               E'Z 
    1 CL               0.000041972      -0.000000528      -0.000001702
    2 C                0.000057957      -0.000394814       0.000134619
    3 C                0.000083147       0.000036589       0.000238525
    4 O                0.000071377      -0.000003315      -0.000144666
    5 H               -0.000206294      -0.000088372      -0.000179308
    6 H               -0.000095976       0.000407166      -0.000074566
    7 H               -0.000042761      -0.000000105       0.000002688
    8 O                0.000033526       0.000006083       0.000021573
    9 H                0.000019538       0.000020719       0.000014031
   10 H                0.000031509       0.000014168      -0.000007410
   11 O               -0.000134812      -0.000249238       0.000331840
   12 H                0.000126849       0.000182834      -0.000387811
   13 H                0.000013968       0.000068813       0.000052188
  $VIB   
          IVIB=   1 IATOM=   6 ICOORD=   2 E=      -62.0866191446
  4.197161962E-05-5.276271801E-07-1.702420606E-06 5.795664303E-05-3.948136666E-04
  1.346189223E-04 8.314690425E-05 3.658895288E-05 2.385248096E-04 7.137703270E-05
 -3.315011402E-06-1.446658822E-04-2.062938262E-04-8.837217262E-05-1.793078830E-04
 -9.597607178E-05 4.071655951E-04-7.456581500E-05-4.276149371E-05-1.054500640E-07
  2.687548145E-06 3.352642364E-05 6.082638390E-06 2.157274921E-05 1.953819376E-05
  2.071906165E-05 1.403076838E-05 3.150946634E-05 1.416789532E-05-7.409766457E-06
 -1.348118678E-04-2.492377803E-04 3.318399778E-04 1.268494211E-04 1.828341091E-04
 -3.878112653E-04 1.396755508E-05 6.881345574E-05 5.218825716E-05
 -3.557381788E-01 3.424471043E+00 7.162872892E-01
1   ATOM  6
                                        -------------------
   COORD  3                             NUCLEAR COORDINATES
                                        -------------------
     VIB  1

                       ATOM             X              Y              Z

                 1  CL               2.880774       0.521130       1.761640
                 2  C                5.308278      -0.128388      -0.392496
                 3  C                5.534573       1.894072      -2.363140
                 4  O                6.680673       1.514710      -4.359031
                 5  H                4.890403      -2.008004      -1.264775
                 6  H                7.113080      -0.249671       0.718326
                 7  H                4.647970       3.750256      -1.926160
                 8  O                8.522985      -2.939601      -7.958883
                 9  H                7.915684      -1.508058      -7.010373
                10  H                7.863622      -2.652344      -9.631102
                11  O                5.916392       0.881425      -9.768107
                12  H                6.652308       1.565260     -11.285217
                13  H                6.239441       2.166117      -8.517505

 MOPAC ONE- AND TWO-ELECTRON INTEGRALS REQUIRE      2933 WORDS.
 ...... END OF ONE- AND TWO-ELECTRON INTEGRALS......
 STEP CPU TIME =     0.00 TOTAL CPU TIME =          2.1 (      0.0 MIN)
 TOTAL WALL CLOCK TIME=          2.1 SECONDS, CPU UTILIZATION IS   100.00%
 ...... END OF ONE-ELECTRON INTEGRALS ......
 STEP CPU TIME =     0.00 TOTAL CPU TIME =          2.1 (      0.0 MIN)
 TOTAL WALL CLOCK TIME=          2.1 SECONDS, CPU UTILIZATION IS   100.00%

     ----------------------------
     INPUT FOR TESSERA DEFINITION
     ----------------------------
     NTSALL  =        60     MTHALL  =         4
     MTHAUT  =         0     AUTFRE  =    2.0000
     NTSFRZ  =        60     KEEPSM  =         0
     AREAKP  =   10.0000     BONDRY  =    1.0000
     AREATL  =    0.0100

     SPHERE     INITS       METHOD
          1        60       FIXPVA
          2        60       FIXPVA
          3        60       FIXPVA
          4        60       FIXPVA
          5        60       FIXPVA
          6        60       FIXPVA
          7        60       FIXPVA
          8        60       FIXPVA
          9        60       FIXPVA
         10        60       FIXPVA
         11        60       FIXPVA
         12        60       FIXPVA
         13        60       FIXPVA

     ------------------------------
      FIXPVA TESSELLATION FOR PCM
         PEIFENG SU AND HUI LI
     UNIVERSITY OF NEBRASKA-LINCOLN
     ------------------------------


     INPUT FOR CAVITY DEFINITION 
     ---------------------------
   ATOM               COORDINATES                RADIUS       EPS
      1      1.5244      0.2758      0.9322      1.8100     78.3900
      2      2.8090     -0.0679     -0.2077      1.7000     78.3900
      3      2.9288      1.0023     -1.2505      1.7000     78.3900
      4      3.5353      0.8015     -2.3067      1.5000     78.3900
      5      2.5879     -1.0626     -0.6693      1.2000     78.3900
      6      3.7641     -0.1321      0.3801      1.2000     78.3900
      7      2.4596      1.9845     -1.0193      1.2000     78.3900
      8      4.5102     -1.5556     -4.2117      1.5000     78.3900
      9      4.1888     -0.7980     -3.7097      1.2000     78.3900
     10      4.1612     -1.4036     -5.0966      1.2000     78.3900
     11      3.1308      0.4664     -5.1691      1.5000     78.3900
     12      3.5202      0.8283     -5.9719      1.2000     78.3900
     13      3.3018      1.1463     -4.5073      1.2000     78.3900

 MEMORY USED TO GENERATE CAVITY=    262582


 TOTAL NUMBER OF SPHERES=    13
 SPHERE           CENTER  (X,Y,Z) (A)               RADIUS (A)      AREA(A*A)
     1   1.524440000   0.275770000   0.932220000   2.172000000  38.490629521
     2   2.809020000  -0.067940000  -0.207700000   2.040000000   3.657701647
     3   2.928770000   1.002300000  -1.250520000   2.040000000  12.181771764
     4   3.535260000   0.801550000  -2.306700000   1.800000000   8.979977716
     5   2.587890000  -1.062590000  -0.669290000   1.440000000   7.103966589
     6   3.764080000  -0.132120000   0.380121772   1.440000000   8.279159613
     7   2.459600000   1.984550000  -1.019280000   1.440000000   7.030749145
     8   4.510170000  -1.555570000  -4.211660000   1.800000000  20.269614417
     9   4.188800000  -0.798030000  -3.709730000   1.440000000   0.594081452
    10   4.161250000  -1.403560000  -5.096560000   1.440000000   4.865725829
    11   3.130820000   0.466430000  -5.169060000   1.800000000  12.439258795
    12   3.520250000   0.828300000  -5.971880000   1.440000000   9.845727228
    13   3.301770000   1.146260000  -4.507270000   1.440000000   4.778707327

 TOTAL NUMBER OF TESSERAE=     272
 SURFACE AREA=   138.51707104(A**2)    CAVITY VOLUME=    119.41243531 (A**3)
 STEP CPU TIME =     0.00 TOTAL CPU TIME =          2.1 (      0.0 MIN)
 TOTAL WALL CLOCK TIME=          2.1 SECONDS, CPU UTILIZATION IS   100.00%

          THE SOLUTE IS ENCLOSED IN ONE CAVITY
 DONE CHECKING SEPARATION.
 STEP CPU TIME =     0.00 TOTAL CPU TIME =          2.1 (      0.0 MIN)
 TOTAL WALL CLOCK TIME=          2.1 SECONDS, CPU UTILIZATION IS   100.00%
 
 ..... DONE SETTING UP PCM CALCULATION .....
 STEP CPU TIME =     0.00 TOTAL CPU TIME =          2.1 (      0.0 MIN)
 TOTAL WALL CLOCK TIME=          2.1 SECONDS, CPU UTILIZATION IS   100.00%

          --------------------------
               R-AM1 SCF CALCULATION
          --------------------------
     DENSITY MATRIX CONV=  1.00E-05

 ITER EX DEM     TOTAL ENERGY        E CHANGE  DENSITY CHANGE    DIIS ERROR
   1  0  0      -62.0866128948   -62.0866128948   0.000838578   0.000000000
   2  1  0      -62.0866142309    -0.0000013360   0.000339336   0.000000000
   3  2  0      -62.0866144202    -0.0000001893   0.000145369   0.000000000
   4  3  0      -62.0866144567    -0.0000000365   0.000065150   0.000000000
   5  4  0      -62.0866144653    -0.0000000086   0.000032801   0.000000000
   6  5  0      -62.0866144677    -0.0000000024   0.000019813   0.000000000
   7  6  0      -62.0866144685    -0.0000000008   0.000011961   0.000000000
   8  7  0      -62.0866144688    -0.0000000003   0.000007222   0.000000000

          -----------------
          DENSITY CONVERGED
          -----------------
     TIME TO FORM FOCK OPERATORS=       0.1 SECONDS (       0.0 SEC/ITER)
     TIME TO SOLVE SCF EQUATIONS=       0.0 SECONDS (       0.0 SEC/ITER)

 FINAL R-AM1 ENERGY IS      -62.0866144688 AFTER   8 ITERATIONS

 HEAT OF FORMATION IS      -182.98423 KCAL/MOL
 
  
   PCM ASC=      0.0393979708
   GCAVP  =      0.0000000000
   GDISP  =      0.0000000000
   GREP   =      0.0000000000
 ...... END OF RHF CALCULATION ......
 STEP CPU TIME =     0.08 TOTAL CPU TIME =          2.2 (      0.0 MIN)
 TOTAL WALL CLOCK TIME=          2.2 SECONDS, CPU UTILIZATION IS   100.00%
 
 .... DONE WITH PCM CONTRIBUTION TO GRADIENT ....
 STEP CPU TIME =     0.00 TOTAL CPU TIME =          2.2 (      0.0 MIN)
 TOTAL WALL CLOCK TIME=          2.2 SECONDS, CPU UTILIZATION IS   100.00%
 STEP CPU TIME =     0.00 TOTAL CPU TIME =          2.2 (      0.0 MIN)
 TOTAL WALL CLOCK TIME=          2.2 SECONDS, CPU UTILIZATION IS   100.00%

 UNITS ARE HARTREE/BOHR    E'X               E'Y               E'Z 
    1 CL               0.000150905      -0.000058452       0.000016929
    2 C               -0.001204468       0.000043816      -0.000964931
    3 C               -0.000262687       0.000191804      -0.000131076
    4 O                0.000092949       0.000010064      -0.000157781
    5 H               -0.000151358      -0.000130862      -0.000094463
    6 H                0.001299868      -0.000119754       0.001299606
    7 H               -0.000015882       0.000019945       0.000007333
    8 O                0.000033552       0.000006041       0.000021648
    9 H                0.000019548       0.000020782       0.000014098
   10 H                0.000031516       0.000014160      -0.000007399
   11 O               -0.000134844      -0.000249168       0.000331970
   12 H                0.000126867       0.000182857      -0.000387821
   13 H                0.000014033       0.000068768       0.000051885
  $VIB   
          IVIB=   1 IATOM=   6 ICOORD=   3 E=      -62.0866144688
  1.509046326E-04-5.845214044E-05 1.692929217E-05-1.204468496E-03 4.381641032E-05
 -9.649309846E-04-2.626866985E-04 1.918044935E-04-1.310755863E-04 9.294915134E-05
  1.006405023E-05-1.577812620E-04-1.513576688E-04-1.308622688E-04-9.446285699E-05
  1.299868314E-03-1.197535825E-04 1.299606277E-03-1.588224948E-05 1.994514238E-05
  7.333029710E-06 3.355208501E-05 6.040509839E-06 2.164835472E-05 1.954808887E-05
  2.078178402E-05 1.409843428E-05 3.151575976E-05 1.415986640E-05-7.398703256E-06
 -1.348435929E-04-2.491683701E-04 3.319697435E-04 1.268673445E-04 1.828565477E-04
 -3.878208124E-04 1.403332971E-05 6.876755743E-05 5.188507366E-05
 -3.582581054E-01 3.418207164E+00 7.203703868E-01
1   ATOM  7
                                        -------------------
   COORD  1                             NUCLEAR COORDINATES
                                        -------------------
     VIB  1

                       ATOM             X              Y              Z

                 1  CL               2.880774       0.521130       1.761640
                 2  C                5.308278      -0.128388      -0.392496
                 3  C                5.534573       1.894072      -2.363140
                 4  O                6.680673       1.514710      -4.359031
                 5  H                4.890403      -2.008004      -1.264775
                 6  H                7.113080      -0.249671       0.708326
                 7  H                4.657970       3.750256      -1.926160
                 8  O                8.522985      -2.939601      -7.958883
                 9  H                7.915684      -1.508058      -7.010373
                10  H                7.863622      -2.652344      -9.631102
                11  O                5.916392       0.881425      -9.768107
                12  H                6.652308       1.565260     -11.285217
                13  H                6.239441       2.166117      -8.517505

 MOPAC ONE- AND TWO-ELECTRON INTEGRALS REQUIRE      2933 WORDS.
 ...... END OF ONE- AND TWO-ELECTRON INTEGRALS......
 STEP CPU TIME =     0.00 TOTAL CPU TIME =          2.2 (      0.0 MIN)
 TOTAL WALL CLOCK TIME=          2.2 SECONDS, CPU UTILIZATION IS   100.00%
 ...... END OF ONE-ELECTRON INTEGRALS ......
 STEP CPU TIME =     0.00 TOTAL CPU TIME =          2.2 (      0.0 MIN)
 TOTAL WALL CLOCK TIME=          2.2 SECONDS, CPU UTILIZATION IS   100.00%

     ----------------------------
     INPUT FOR TESSERA DEFINITION
     ----------------------------
     NTSALL  =        60     MTHALL  =         4
     MTHAUT  =         0     AUTFRE  =    2.0000
     NTSFRZ  =        60     KEEPSM  =         0
     AREAKP  =   10.0000     BONDRY  =    1.0000
     AREATL  =    0.0100

     SPHERE     INITS       METHOD
          1        60       FIXPVA
          2        60       FIXPVA
          3        60       FIXPVA
          4        60       FIXPVA
          5        60       FIXPVA
          6        60       FIXPVA
          7        60       FIXPVA
          8        60       FIXPVA
          9        60       FIXPVA
         10        60       FIXPVA
         11        60       FIXPVA
         12        60       FIXPVA
         13        60       FIXPVA

     ------------------------------
      FIXPVA TESSELLATION FOR PCM
         PEIFENG SU AND HUI LI
     UNIVERSITY OF NEBRASKA-LINCOLN
     ------------------------------


     INPUT FOR CAVITY DEFINITION 
     ---------------------------
   ATOM               COORDINATES                RADIUS       EPS
      1      1.5244      0.2758      0.9322      1.8100     78.3900
      2      2.8090     -0.0679     -0.2077      1.7000     78.3900
      3      2.9288      1.0023     -1.2505      1.7000     78.3900
      4      3.5353      0.8015     -2.3067      1.5000     78.3900
      5      2.5879     -1.0626     -0.6693      1.2000     78.3900
      6      3.7641     -0.1321      0.3748      1.2000     78.3900
      7      2.4649      1.9845     -1.0193      1.2000     78.3900
      8      4.5102     -1.5556     -4.2117      1.5000     78.3900
      9      4.1888     -0.7980     -3.7097      1.2000     78.3900
     10      4.1612     -1.4036     -5.0966      1.2000     78.3900
     11      3.1308      0.4664     -5.1691      1.5000     78.3900
     12      3.5202      0.8283     -5.9719      1.2000     78.3900
     13      3.3018      1.1463     -4.5073      1.2000     78.3900

 MEMORY USED TO GENERATE CAVITY=    262582


 TOTAL NUMBER OF SPHERES=    13
 SPHERE           CENTER  (X,Y,Z) (A)               RADIUS (A)      AREA(A*A)
     1   1.524440000   0.275770000   0.932220000   2.172000000  38.490629521
     2   2.809020000  -0.067940000  -0.207700000   2.040000000   3.657223925
     3   2.928770000   1.002300000  -1.250520000   2.040000000  12.170451890
     4   3.535260000   0.801550000  -2.306700000   1.800000000   8.978195913
     5   2.587890000  -1.062590000  -0.669290000   1.440000000   7.103966586
     6   3.764080000  -0.132120000   0.374830000   1.440000000   8.266216870
     7   2.464891772   1.984550000  -1.019280000   1.440000000   7.036716738
     8   4.510170000  -1.555570000  -4.211660000   1.800000000  20.269614417
     9   4.188800000  -0.798030000  -3.709730000   1.440000000   0.594081452
    10   4.161250000  -1.403560000  -5.096560000   1.440000000   4.865725829
    11   3.130820000   0.466430000  -5.169060000   1.800000000  12.439258795
    12   3.520250000   0.828300000  -5.971880000   1.440000000   9.845727228
    13   3.301770000   1.146260000  -4.507270000   1.440000000   4.778706638

 TOTAL NUMBER OF TESSERAE=     272
 SURFACE AREA=   138.49651580(A**2)    CAVITY VOLUME=    119.38674016 (A**3)
 STEP CPU TIME =     0.00 TOTAL CPU TIME =          2.2 (      0.0 MIN)
 TOTAL WALL CLOCK TIME=          2.2 SECONDS, CPU UTILIZATION IS   100.00%

          THE SOLUTE IS ENCLOSED IN ONE CAVITY
 DONE CHECKING SEPARATION.
 STEP CPU TIME =     0.00 TOTAL CPU TIME =          2.2 (      0.0 MIN)
 TOTAL WALL CLOCK TIME=          2.2 SECONDS, CPU UTILIZATION IS   100.00%
 
 ..... DONE SETTING UP PCM CALCULATION .....
 STEP CPU TIME =     0.00 TOTAL CPU TIME =          2.2 (      0.0 MIN)
 TOTAL WALL CLOCK TIME=          2.2 SECONDS, CPU UTILIZATION IS   100.00%

          --------------------------
               R-AM1 SCF CALCULATION
          --------------------------
     DENSITY MATRIX CONV=  1.00E-05

 ITER EX DEM     TOTAL ENERGY        E CHANGE  DENSITY CHANGE    DIIS ERROR
   1  0  0      -62.0866153839   -62.0866153839   0.000915857   0.000000000
   2  1  0      -62.0866167131    -0.0000013292   0.000428289   0.000000000
   3  2  0      -62.0866169968    -0.0000002837   0.000224311   0.000000000
   4  3  0      -62.0866170926    -0.0000000958   0.000129744   0.000000000
   5  4  0      -62.0866171339    -0.0000000413   0.000102868   0.000000000
   6  5  0      -62.0866171539    -0.0000000199   0.000078368   0.000000000
   7  6  0      -62.0866171640    -0.0000000102   0.000058490   0.000000000
   8  7  0      -62.0866171692    -0.0000000052   0.000043166   0.000000000
   9  8  0      -62.0866171720    -0.0000000027   0.000031655   0.000000000
  10  9  0      -62.0866171734    -0.0000000014   0.000023128   0.000000000
  11 10  0      -62.0866171742    -0.0000000007   0.000016861   0.000000000
  12 11  0      -62.0866171746    -0.0000000004   0.000012276   0.000000000

          ----------------
          ENERGY CONVERGED
          ----------------
     TIME TO FORM FOCK OPERATORS=       0.1 SECONDS (       0.0 SEC/ITER)
     TIME TO SOLVE SCF EQUATIONS=       0.0 SECONDS (       0.0 SEC/ITER)

 FINAL R-AM1 ENERGY IS      -62.0866171746 AFTER  12 ITERATIONS

 HEAT OF FORMATION IS      -182.98593 KCAL/MOL
 
  
   PCM ASC=      0.0394023370
   GCAVP  =      0.0000000000
   GDISP  =      0.0000000000
   GREP   =      0.0000000000
 ...... END OF RHF CALCULATION ......
 STEP CPU TIME =     0.14 TOTAL CPU TIME =          2.3 (      0.0 MIN)
 TOTAL WALL CLOCK TIME=          2.3 SECONDS, CPU UTILIZATION IS   100.00%
 
 .... DONE WITH PCM CONTRIBUTION TO GRADIENT ....
 STEP CPU TIME =     0.01 TOTAL CPU TIME =          2.3 (      0.0 MIN)
 TOTAL WALL CLOCK TIME=          2.3 SECONDS, CPU UTILIZATION IS   100.00%
 STEP CPU TIME =     0.00 TOTAL CPU TIME =          2.3 (      0.0 MIN)
 TOTAL WALL CLOCK TIME=          2.3 SECONDS, CPU UTILIZATION IS   100.00%

 UNITS ARE HARTREE/BOHR    E'X               E'Y               E'Z 
    1 CL              -0.000036568      -0.000030268       0.000004915
    2 C                0.000087942       0.000025774       0.000115426
    3 C               -0.001021243       0.000903413       0.000132802
    4 O                0.000044168       0.000286312       0.000119651
    5 H               -0.000013715      -0.000064769      -0.000039091
    6 H                0.000026563      -0.000023916       0.000047817
    7 H                0.000821571      -0.001139204      -0.000405320
    8 O                0.000033357       0.000006509       0.000022256
    9 H                0.000020489       0.000019410       0.000012464
   10 H                0.000031418       0.000014225      -0.000007665
   11 O               -0.000134596      -0.000249474       0.000332146
   12 H                0.000126812       0.000182798      -0.000387870
   13 H                0.000013804       0.000069189       0.000052470
  $VIB   
          IVIB=   1 IATOM=   7 ICOORD=   1 E=      -62.0866171746
 -3.656821015E-05-3.026810161E-05 4.915441592E-06 8.794181942E-05 2.577438163E-05
  1.154255833E-04-1.021243374E-03 9.034129821E-04 1.328015306E-04 4.416794381E-05
  2.863121723E-04 1.196506092E-04-1.371490443E-05-6.476852290E-05-3.909107170E-05
  2.656293160E-05-2.391567053E-05 4.781675299E-05 8.215705814E-04-1.139204310E-03
 -4.053204699E-04 3.335655309E-05 6.509146364E-06 2.225623555E-05 2.048908540E-05
  1.940981390E-05 1.246420408E-05 3.141784384E-05 1.422461375E-05-7.664604904E-06
 -1.345960753E-04-2.494742488E-04 3.321462040E-04 1.268116905E-04 1.827983311E-04
 -3.878699476E-04 1.380411524E-05 6.918941253E-05 5.246953270E-05
 -3.534125142E-01 3.419494160E+00 7.162671576E-01
1   ATOM  7
                                        -------------------
   COORD  2                             NUCLEAR COORDINATES
                                        -------------------
     VIB  1

                       ATOM             X              Y              Z

                 1  CL               2.880774       0.521130       1.761640
                 2  C                5.308278      -0.128388      -0.392496
                 3  C                5.534573       1.894072      -2.363140
                 4  O                6.680673       1.514710      -4.359031
                 5  H                4.890403      -2.008004      -1.264775
                 6  H                7.113080      -0.249671       0.708326
                 7  H                4.647970       3.760256      -1.926160
                 8  O                8.522985      -2.939601      -7.958883
                 9  H                7.915684      -1.508058      -7.010373
                10  H                7.863622      -2.652344      -9.631102
                11  O                5.916392       0.881425      -9.768107
                12  H                6.652308       1.565260     -11.285217
                13  H                6.239441       2.166117      -8.517505

 MOPAC ONE- AND TWO-ELECTRON INTEGRALS REQUIRE      2933 WORDS.
 ...... END OF ONE- AND TWO-ELECTRON INTEGRALS......
 STEP CPU TIME =     0.00 TOTAL CPU TIME =          2.3 (      0.0 MIN)
 TOTAL WALL CLOCK TIME=          2.3 SECONDS, CPU UTILIZATION IS   100.00%
 ...... END OF ONE-ELECTRON INTEGRALS ......
 STEP CPU TIME =     0.00 TOTAL CPU TIME =          2.3 (      0.0 MIN)
 TOTAL WALL CLOCK TIME=          2.3 SECONDS, CPU UTILIZATION IS   100.00%

     ----------------------------
     INPUT FOR TESSERA DEFINITION
     ----------------------------
     NTSALL  =        60     MTHALL  =         4
     MTHAUT  =         0     AUTFRE  =    2.0000
     NTSFRZ  =        60     KEEPSM  =         0
     AREAKP  =   10.0000     BONDRY  =    1.0000
     AREATL  =    0.0100

     SPHERE     INITS       METHOD
          1        60       FIXPVA
          2        60       FIXPVA
          3        60       FIXPVA
          4        60       FIXPVA
          5        60       FIXPVA
          6        60       FIXPVA
          7        60       FIXPVA
          8        60       FIXPVA
          9        60       FIXPVA
         10        60       FIXPVA
         11        60       FIXPVA
         12        60       FIXPVA
         13        60       FIXPVA

     ------------------------------
      FIXPVA TESSELLATION FOR PCM
         PEIFENG SU AND HUI LI
     UNIVERSITY OF NEBRASKA-LINCOLN
     ------------------------------


     INPUT FOR CAVITY DEFINITION 
     ---------------------------
   ATOM               COORDINATES                RADIUS       EPS
      1      1.5244      0.2758      0.9322      1.8100     78.3900
      2      2.8090     -0.0679     -0.2077      1.7000     78.3900
      3      2.9288      1.0023     -1.2505      1.7000     78.3900
      4      3.5353      0.8015     -2.3067      1.5000     78.3900
      5      2.5879     -1.0626     -0.6693      1.2000     78.3900
      6      3.7641     -0.1321      0.3748      1.2000     78.3900
      7      2.4596      1.9898     -1.0193      1.2000     78.3900
      8      4.5102     -1.5556     -4.2117      1.5000     78.3900
      9      4.1888     -0.7980     -3.7097      1.2000     78.3900
     10      4.1612     -1.4036     -5.0966      1.2000     78.3900
     11      3.1308      0.4664     -5.1691      1.5000     78.3900
     12      3.5202      0.8283     -5.9719      1.2000     78.3900
     13      3.3018      1.1463     -4.5073      1.2000     78.3900

 MEMORY USED TO GENERATE CAVITY=    262582


 TOTAL NUMBER OF SPHERES=    13
 SPHERE           CENTER  (X,Y,Z) (A)               RADIUS (A)      AREA(A*A)
     1   1.524440000   0.275770000   0.932220000   2.172000000  38.490629521
     2   2.809020000  -0.067940000  -0.207700000   2.040000000   3.657223925
     3   2.928770000   1.002300000  -1.250520000   2.040000000  12.171352171
     4   3.535260000   0.801550000  -2.306700000   1.800000000   8.978195913
     5   2.587890000  -1.062590000  -0.669290000   1.440000000   7.103966586
     6   3.764080000  -0.132120000   0.374830000   1.440000000   8.266216870
     7   2.459600000   1.989841772  -1.019280000   1.440000000   7.074264502
     8   4.510170000  -1.555570000  -4.211660000   1.800000000  20.269614417
     9   4.188800000  -0.798030000  -3.709730000   1.440000000   0.594081452
    10   4.161250000  -1.403560000  -5.096560000   1.440000000   4.865725829
    11   3.130820000   0.466430000  -5.169060000   1.800000000  12.439258795
    12   3.520250000   0.828300000  -5.971880000   1.440000000   9.845727228
    13   3.301770000   1.146260000  -4.507270000   1.440000000   4.778701544

 TOTAL NUMBER OF TESSERAE=     272
 SURFACE AREA=   138.53495875(A**2)    CAVITY VOLUME=    119.43483970 (A**3)
 STEP CPU TIME =     0.00 TOTAL CPU TIME =          2.4 (      0.0 MIN)
 TOTAL WALL CLOCK TIME=          2.4 SECONDS, CPU UTILIZATION IS   100.00%

          THE SOLUTE IS ENCLOSED IN ONE CAVITY
 DONE CHECKING SEPARATION.
 STEP CPU TIME =     0.00 TOTAL CPU TIME =          2.4 (      0.0 MIN)
 TOTAL WALL CLOCK TIME=          2.4 SECONDS, CPU UTILIZATION IS   100.00%
 
 ..... DONE SETTING UP PCM CALCULATION .....
 STEP CPU TIME =     0.00 TOTAL CPU TIME =          2.4 (      0.0 MIN)
 TOTAL WALL CLOCK TIME=          2.4 SECONDS, CPU UTILIZATION IS   100.00%

          --------------------------
               R-AM1 SCF CALCULATION
          --------------------------
     DENSITY MATRIX CONV=  1.00E-05

 ITER EX DEM     TOTAL ENERGY        E CHANGE  DENSITY CHANGE    DIIS ERROR
   1  0  0      -62.0866056670   -62.0866056670   0.000771347   0.000000000
   2  1  0      -62.0866072304    -0.0000015634   0.000201012   0.000000000
   3  2  0      -62.0866073823    -0.0000001518   0.000097129   0.000000000
   4  3  0      -62.0866074080    -0.0000000257   0.000053808   0.000000000
   5  4  0      -62.0866074151    -0.0000000071   0.000039278   0.000000000
   6  5  0      -62.0866074180    -0.0000000029   0.000029171   0.000000000
   7  6  0      -62.0866074194    -0.0000000013   0.000021470   0.000000000
   8  7  0      -62.0866074200    -0.0000000007   0.000015715   0.000000000
   9  8  0      -62.0866074204    -0.0000000003   0.000011466   0.000000000

          ----------------
          ENERGY CONVERGED
          ----------------
     TIME TO FORM FOCK OPERATORS=       0.1 SECONDS (       0.0 SEC/ITER)
     TIME TO SOLVE SCF EQUATIONS=       0.0 SECONDS (       0.0 SEC/ITER)

 FINAL R-AM1 ENERGY IS      -62.0866074204 AFTER   9 ITERATIONS

 HEAT OF FORMATION IS      -182.97981 KCAL/MOL
 
  
   PCM ASC=      0.0393842705
   GCAVP  =      0.0000000000
   GDISP  =      0.0000000000
   GREP   =      0.0000000000
 ...... END OF RHF CALCULATION ......
 STEP CPU TIME =     0.10 TOTAL CPU TIME =          2.4 (      0.0 MIN)
 TOTAL WALL CLOCK TIME=          2.4 SECONDS, CPU UTILIZATION IS   100.00%
 
 .... DONE WITH PCM CONTRIBUTION TO GRADIENT ....
 STEP CPU TIME =     0.02 TOTAL CPU TIME =          2.5 (      0.0 MIN)
 TOTAL WALL CLOCK TIME=          2.5 SECONDS, CPU UTILIZATION IS   100.00%
 STEP CPU TIME =     0.00 TOTAL CPU TIME =          2.5 (      0.0 MIN)
 TOTAL WALL CLOCK TIME=          2.5 SECONDS, CPU UTILIZATION IS   100.00%

 UNITS ARE HARTREE/BOHR    E'X               E'Y               E'Z 
    1 CL              -0.000045469      -0.000040180       0.000020478
    2 C                0.000059928      -0.000279312       0.000137735
    3 C                0.000773380      -0.002277128      -0.000444093
    4 O                0.000256979      -0.000075672      -0.000299057
    5 H               -0.000009245      -0.000075711      -0.000021219
    6 H                0.000029897      -0.000019744       0.000043583
    7 H               -0.001156646       0.002724645       0.000539598
    8 O                0.000033438       0.000006464       0.000022138
    9 H                0.000020319       0.000019417       0.000012951
   10 H                0.000031455       0.000014101      -0.000007664
   11 O               -0.000134527      -0.000249328       0.000333066
   12 H                0.000126829       0.000182878      -0.000388067
   13 H                0.000013662       0.000069569       0.000050551
  $VIB   
          IVIB=   1 IATOM=   7 ICOORD=   2 E=      -62.0866074204
 -4.546891762E-05-4.017962107E-05 2.047822464E-05 5.992817726E-05-2.793120189E-04
  1.377353460E-04 7.733795257E-04-2.277128131E-03-4.440929152E-04 2.569785711E-04
 -7.567212371E-05-2.990574235E-04-9.245248414E-06-7.571136301E-05-2.121865478E-05
  2.989719798E-05-1.974365622E-05 4.358282075E-05-1.156645658E-03 2.724645384E-03
  5.395982226E-04 3.343828779E-05 6.464486200E-06 2.213757269E-05 2.031868593E-05
  1.941743165E-05 1.295086337E-05 3.145454586E-05 1.410119726E-05-7.664342039E-06
 -1.345267066E-04-2.493282035E-04 3.330662423E-04 1.268294531E-04 1.828780761E-04
 -3.880671711E-04 1.366208606E-05 6.956854272E-05 5.055121413E-05
 -3.547695062E-01 3.419889727E+00 7.150971860E-01
1   ATOM  7
                                        -------------------
   COORD  3                             NUCLEAR COORDINATES
                                        -------------------
     VIB  1

                       ATOM             X              Y              Z

                 1  CL               2.880774       0.521130       1.761640
                 2  C                5.308278      -0.128388      -0.392496
                 3  C                5.534573       1.894072      -2.363140
                 4  O                6.680673       1.514710      -4.359031
                 5  H                4.890403      -2.008004      -1.264775
                 6  H                7.113080      -0.249671       0.708326
                 7  H                4.647970       3.750256      -1.916160
                 8  O                8.522985      -2.939601      -7.958883
                 9  H                7.915684      -1.508058      -7.010373
                10  H                7.863622      -2.652344      -9.631102
                11  O                5.916392       0.881425      -9.768107
                12  H                6.652308       1.565260     -11.285217
                13  H                6.239441       2.166117      -8.517505

 MOPAC ONE- AND TWO-ELECTRON INTEGRALS REQUIRE      2933 WORDS.
 ...... END OF ONE- AND TWO-ELECTRON INTEGRALS......
 STEP CPU TIME =     0.00 TOTAL CPU TIME =          2.5 (      0.0 MIN)
 TOTAL WALL CLOCK TIME=          2.5 SECONDS, CPU UTILIZATION IS   100.00%
 ...... END OF ONE-ELECTRON INTEGRALS ......
 STEP CPU TIME =     0.00 TOTAL CPU TIME =          2.5 (      0.0 MIN)
 TOTAL WALL CLOCK TIME=          2.5 SECONDS, CPU UTILIZATION IS   100.00%

     ----------------------------
     INPUT FOR TESSERA DEFINITION
     ----------------------------
     NTSALL  =        60     MTHALL  =         4
     MTHAUT  =         0     AUTFRE  =    2.0000
     NTSFRZ  =        60     KEEPSM  =         0
     AREAKP  =   10.0000     BONDRY  =    1.0000
     AREATL  =    0.0100

     SPHERE     INITS       METHOD
          1        60       FIXPVA
          2        60       FIXPVA
          3        60       FIXPVA
          4        60       FIXPVA
          5        60       FIXPVA
          6        60       FIXPVA
          7        60       FIXPVA
          8        60       FIXPVA
          9        60       FIXPVA
         10        60       FIXPVA
         11        60       FIXPVA
         12        60       FIXPVA
         13        60       FIXPVA

     ------------------------------
      FIXPVA TESSELLATION FOR PCM
         PEIFENG SU AND HUI LI
     UNIVERSITY OF NEBRASKA-LINCOLN
     ------------------------------


     INPUT FOR CAVITY DEFINITION 
     ---------------------------
   ATOM               COORDINATES                RADIUS       EPS
      1      1.5244      0.2758      0.9322      1.8100     78.3900
      2      2.8090     -0.0679     -0.2077      1.7000     78.3900
      3      2.9288      1.0023     -1.2505      1.7000     78.3900
      4      3.5353      0.8015     -2.3067      1.5000     78.3900
      5      2.5879     -1.0626     -0.6693      1.2000     78.3900
      6      3.7641     -0.1321      0.3748      1.2000     78.3900
      7      2.4596      1.9845     -1.0140      1.2000     78.3900
      8      4.5102     -1.5556     -4.2117      1.5000     78.3900
      9      4.1888     -0.7980     -3.7097      1.2000     78.3900
     10      4.1612     -1.4036     -5.0966      1.2000     78.3900
     11      3.1308      0.4664     -5.1691      1.5000     78.3900
     12      3.5202      0.8283     -5.9719      1.2000     78.3900
     13      3.3018      1.1463     -4.5073      1.2000     78.3900

 MEMORY USED TO GENERATE CAVITY=    262582


 TOTAL NUMBER OF SPHERES=    13
 SPHERE           CENTER  (X,Y,Z) (A)               RADIUS (A)      AREA(A*A)
     1   1.524440000   0.275770000   0.932220000   2.172000000  38.490629521
     2   2.809020000  -0.067940000  -0.207700000   2.040000000   3.657223925
     3   2.928770000   1.002300000  -1.250520000   2.040000000  12.161204596
     4   3.535260000   0.801550000  -2.306700000   1.800000000   8.978195913
     5   2.587890000  -1.062590000  -0.669290000   1.440000000   7.103966586
     6   3.764080000  -0.132120000   0.374830000   1.440000000   8.266216870
     7   2.459600000   1.984550000  -1.013988228   1.440000000   7.040916868
     8   4.510170000  -1.555570000  -4.211660000   1.800000000  20.269614417
     9   4.188800000  -0.798030000  -3.709730000   1.440000000   0.594081452
    10   4.161250000  -1.403560000  -5.096560000   1.440000000   4.865725829
    11   3.130820000   0.466430000  -5.169060000   1.800000000  12.439258795
    12   3.520250000   0.828300000  -5.971880000   1.440000000   9.845727228
    13   3.301770000   1.146260000  -4.507270000   1.440000000   4.778724178

 TOTAL NUMBER OF TESSERAE=     272
 SURFACE AREA=   138.49148618(A**2)    CAVITY VOLUME=    119.38220403 (A**3)
 STEP CPU TIME =     0.00 TOTAL CPU TIME =          2.5 (      0.0 MIN)
 TOTAL WALL CLOCK TIME=          2.5 SECONDS, CPU UTILIZATION IS   100.00%

          THE SOLUTE IS ENCLOSED IN ONE CAVITY
 DONE CHECKING SEPARATION.
 STEP CPU TIME =     0.00 TOTAL CPU TIME =          2.5 (      0.0 MIN)
 TOTAL WALL CLOCK TIME=          2.5 SECONDS, CPU UTILIZATION IS   100.00%
 
 ..... DONE SETTING UP PCM CALCULATION .....
 STEP CPU TIME =     0.00 TOTAL CPU TIME =          2.5 (      0.0 MIN)
 TOTAL WALL CLOCK TIME=          2.5 SECONDS, CPU UTILIZATION IS   100.00%

          --------------------------
               R-AM1 SCF CALCULATION
          --------------------------
     DENSITY MATRIX CONV=  1.00E-05

 ITER EX DEM     TOTAL ENERGY        E CHANGE  DENSITY CHANGE    DIIS ERROR
   1  0  0      -62.0866160741   -62.0866160741   0.000875717   0.000000000
   2  1  0      -62.0866172013    -0.0000011272   0.000347060   0.000000000
   3  2  0      -62.0866173822    -0.0000001809   0.000154583   0.000000000
   4  3  0      -62.0866174282    -0.0000000459   0.000078609   0.000000000
   5  4  0      -62.0866174440    -0.0000000159   0.000053854   0.000000000
   6  5  0      -62.0866174506    -0.0000000066   0.000037726   0.000000000
   7  6  0      -62.0866174537    -0.0000000031   0.000028422   0.000000000
   8  7  0      -62.0866174552    -0.0000000015   0.000021200   0.000000000
   9  8  0      -62.0866174560    -0.0000000008   0.000015697   0.000000000
  10  9  0      -62.0866174563    -0.0000000003   0.000011560   0.000000000

          ----------------
          ENERGY CONVERGED
          ----------------
     TIME TO FORM FOCK OPERATORS=       0.1 SECONDS (       0.0 SEC/ITER)
     TIME TO SOLVE SCF EQUATIONS=       0.0 SECONDS (       0.0 SEC/ITER)

 FINAL R-AM1 ENERGY IS      -62.0866174563 AFTER  10 ITERATIONS

 HEAT OF FORMATION IS      -182.98611 KCAL/MOL
 
  
   PCM ASC=      0.0394065686
   GCAVP  =      0.0000000000
   GDISP  =      0.0000000000
   GREP   =      0.0000000000
 ...... END OF RHF CALCULATION ......
 STEP CPU TIME =     0.11 TOTAL CPU TIME =          2.6 (      0.0 MIN)
 TOTAL WALL CLOCK TIME=          2.6 SECONDS, CPU UTILIZATION IS   100.00%
 
 .... DONE WITH PCM CONTRIBUTION TO GRADIENT ....
 STEP CPU TIME =     0.02 TOTAL CPU TIME =          2.6 (      0.0 MIN)
 TOTAL WALL CLOCK TIME=          2.6 SECONDS, CPU UTILIZATION IS   100.00%
 STEP CPU TIME =     0.00 TOTAL CPU TIME =          2.6 (      0.0 MIN)
 TOTAL WALL CLOCK TIME=          2.6 SECONDS, CPU UTILIZATION IS   100.00%

 UNITS ARE HARTREE/BOHR    E'X               E'Y               E'Z 
    1 CL              -0.000034295      -0.000017799      -0.000002383
    2 C               -0.000049373       0.000189283       0.000090259
    3 C               -0.000022409      -0.000363108      -0.000438204
    4 O                0.000429292      -0.000339020      -0.000395926
    5 H               -0.000011990      -0.000058367      -0.000050397
    6 H                0.000033883      -0.000010575       0.000037624
    7 H               -0.000435181       0.000555251       0.000733152
    8 O                0.000033639       0.000005533       0.000020676
    9 H                0.000018926       0.000022561       0.000015614
   10 H                0.000031594       0.000014191      -0.000007087
   11 O               -0.000135080      -0.000249198       0.000330845
   12 H                0.000126871       0.000182827      -0.000387548
   13 H                0.000014122       0.000068421       0.000053376
  $VIB   
          IVIB=   1 IATOM=   7 ICOORD=   3 E=      -62.0866174563
 -3.429538027E-05-1.779935084E-05-2.383186671E-06-4.937256851E-05 1.892827051E-04
  9.025869790E-05-2.240912676E-05-3.631076714E-04-4.382042081E-04 4.292922387E-04
 -3.390195105E-04-3.959262114E-04-1.199009568E-05-5.836701426E-05-5.039738872E-05
  3.388348071E-05-1.057503666E-05 3.762366706E-05-4.351811540E-04 5.552513668E-04
  7.331520425E-04 3.363895914E-05 5.532503712E-06 2.067581455E-05 1.892597210E-05
  2.256099355E-05 1.561440656E-05 3.159415055E-05 1.419091247E-05-7.087336816E-06
 -1.350799224E-04-2.491978666E-04 3.308453434E-04 1.268712747E-04 1.828271394E-04
 -3.875480322E-04 1.412217169E-05 6.842082924E-05 5.337639188E-05
 -3.562284733E-01 3.416698375E+00 7.210491995E-01
1   ATOM  8
                                        -------------------
   COORD  1                             NUCLEAR COORDINATES
                                        -------------------
     VIB  1

                       ATOM             X              Y              Z

                 1  CL               2.880774       0.521130       1.761640
                 2  C                5.308278      -0.128388      -0.392496
                 3  C                5.534573       1.894072      -2.363140
                 4  O                6.680673       1.514710      -4.359031
                 5  H                4.890403      -2.008004      -1.264775
                 6  H                7.113080      -0.249671       0.708326
                 7  H                4.647970       3.750256      -1.926160
                 8  O                8.532985      -2.939601      -7.958883
                 9  H                7.915684      -1.508058      -7.010373
                10  H                7.863622      -2.652344      -9.631102
                11  O                5.916392       0.881425      -9.768107
                12  H                6.652308       1.565260     -11.285217
                13  H                6.239441       2.166117      -8.517505

 MOPAC ONE- AND TWO-ELECTRON INTEGRALS REQUIRE      2933 WORDS.
 ...... END OF ONE- AND TWO-ELECTRON INTEGRALS......
 STEP CPU TIME =     0.00 TOTAL CPU TIME =          2.6 (      0.0 MIN)
 TOTAL WALL CLOCK TIME=          2.6 SECONDS, CPU UTILIZATION IS   100.00%
 ...... END OF ONE-ELECTRON INTEGRALS ......
 STEP CPU TIME =     0.00 TOTAL CPU TIME =          2.6 (      0.0 MIN)
 TOTAL WALL CLOCK TIME=          2.6 SECONDS, CPU UTILIZATION IS   100.00%

     ----------------------------
     INPUT FOR TESSERA DEFINITION
     ----------------------------
     NTSALL  =        60     MTHALL  =         4
     MTHAUT  =         0     AUTFRE  =    2.0000
     NTSFRZ  =        60     KEEPSM  =         0
     AREAKP  =   10.0000     BONDRY  =    1.0000
     AREATL  =    0.0100

     SPHERE     INITS       METHOD
          1        60       FIXPVA
          2        60       FIXPVA
          3        60       FIXPVA
          4        60       FIXPVA
          5        60       FIXPVA
          6        60       FIXPVA
          7        60       FIXPVA
          8        60       FIXPVA
          9        60       FIXPVA
         10        60       FIXPVA
         11        60       FIXPVA
         12        60       FIXPVA
         13        60       FIXPVA

     ------------------------------
      FIXPVA TESSELLATION FOR PCM
         PEIFENG SU AND HUI LI
     UNIVERSITY OF NEBRASKA-LINCOLN
     ------------------------------


     INPUT FOR CAVITY DEFINITION 
     ---------------------------
   ATOM               COORDINATES                RADIUS       EPS
      1      1.5244      0.2758      0.9322      1.8100     78.3900
      2      2.8090     -0.0679     -0.2077      1.7000     78.3900
      3      2.9288      1.0023     -1.2505      1.7000     78.3900
      4      3.5353      0.8015     -2.3067      1.5000     78.3900
      5      2.5879     -1.0626     -0.6693      1.2000     78.3900
      6      3.7641     -0.1321      0.3748      1.2000     78.3900
      7      2.4596      1.9845     -1.0193      1.2000     78.3900
      8      4.5155     -1.5556     -4.2117      1.5000     78.3900
      9      4.1888     -0.7980     -3.7097      1.2000     78.3900
     10      4.1612     -1.4036     -5.0966      1.2000     78.3900
     11      3.1308      0.4664     -5.1691      1.5000     78.3900
     12      3.5202      0.8283     -5.9719      1.2000     78.3900
     13      3.3018      1.1463     -4.5073      1.2000     78.3900

 MEMORY USED TO GENERATE CAVITY=    262582


 TOTAL NUMBER OF SPHERES=    13
 SPHERE           CENTER  (X,Y,Z) (A)               RADIUS (A)      AREA(A*A)
     1   1.524440000   0.275770000   0.932220000   2.172000000  38.490629521
     2   2.809020000  -0.067940000  -0.207700000   2.040000000   3.657223925
     3   2.928770000   1.002300000  -1.250520000   2.040000000  12.181771764
     4   3.535260000   0.801550000  -2.306700000   1.800000000   8.973175257
     5   2.587890000  -1.062590000  -0.669290000   1.440000000   7.106314190
     6   3.764080000  -0.132120000   0.374830000   1.440000000   8.266216870
     7   2.459600000   1.984550000  -1.019280000   1.440000000   7.030749145
     8   4.515461772  -1.555570000  -4.211660000   1.800000000  20.296852280
     9   4.188800000  -0.798030000  -3.709730000   1.440000000   0.581811195
    10   4.161250000  -1.403560000  -5.096560000   1.440000000   4.860914937
    11   3.130820000   0.466430000  -5.169060000   1.800000000  12.439258795
    12   3.520250000   0.828300000  -5.971880000   1.440000000   9.845240984
    13   3.301770000   1.146260000  -4.507270000   1.440000000   4.778707153

 TOTAL NUMBER OF TESSERAE=     272
 SURFACE AREA=   138.50886602(A**2)    CAVITY VOLUME=    119.39287381 (A**3)
 STEP CPU TIME =     0.00 TOTAL CPU TIME =          2.6 (      0.0 MIN)
 TOTAL WALL CLOCK TIME=          2.6 SECONDS, CPU UTILIZATION IS   100.00%

          THE SOLUTE IS ENCLOSED IN ONE CAVITY
 DONE CHECKING SEPARATION.
 STEP CPU TIME =     0.00 TOTAL CPU TIME =          2.6 (      0.0 MIN)
 TOTAL WALL CLOCK TIME=          2.6 SECONDS, CPU UTILIZATION IS   100.00%
 
 ..... DONE SETTING UP PCM CALCULATION .....
 STEP CPU TIME =     0.00 TOTAL CPU TIME =          2.6 (      0.0 MIN)
 TOTAL WALL CLOCK TIME=          2.6 SECONDS, CPU UTILIZATION IS   100.00%

          --------------------------
               R-AM1 SCF CALCULATION
          --------------------------
     DENSITY MATRIX CONV=  1.00E-05

 ITER EX DEM     TOTAL ENERGY        E CHANGE  DENSITY CHANGE    DIIS ERROR
   1  0  0      -62.0866021467   -62.0866021467   0.002205289   0.000000000
   2  1  0      -62.0866103926    -0.0000082459   0.001213062   0.000000000
   3  2  0      -62.0866126365    -0.0000022439   0.000663856   0.000000000
   4  3  0      -62.0866133004    -0.0000006639   0.000363196   0.000000000
   5  4  0      -62.0866135011    -0.0000002007   0.000198999   0.000000000
   6  5  0      -62.0866135623    -0.0000000612   0.000109253   0.000000000
   7  6  0      -62.0866135812    -0.0000000189   0.000060104   0.000000000
   8  7  0      -62.0866135869    -0.0000000058   0.000033129   0.000000000
   9  8  0      -62.0866135887    -0.0000000018   0.000018291   0.000000000
  10  9  0      -62.0866135892    -0.0000000006   0.000010113   0.000000000
  11 10  0      -62.0866135894    -0.0000000002   0.000005599   0.000000000

          -----------------
          DENSITY CONVERGED
          -----------------
     TIME TO FORM FOCK OPERATORS=       0.1 SECONDS (       0.0 SEC/ITER)
     TIME TO SOLVE SCF EQUATIONS=       0.0 SECONDS (       0.0 SEC/ITER)

 FINAL R-AM1 ENERGY IS      -62.0866135894 AFTER  11 ITERATIONS

 HEAT OF FORMATION IS      -182.98368 KCAL/MOL
 
  
   PCM ASC=      0.0394031253
   GCAVP  =      0.0000000000
   GDISP  =      0.0000000000
   GREP   =      0.0000000000
 ...... END OF RHF CALCULATION ......
 STEP CPU TIME =     0.11 TOTAL CPU TIME =          2.7 (      0.0 MIN)
 TOTAL WALL CLOCK TIME=          2.7 SECONDS, CPU UTILIZATION IS   100.00%
 
 .... DONE WITH PCM CONTRIBUTION TO GRADIENT ....
 STEP CPU TIME =     0.01 TOTAL CPU TIME =          2.7 (      0.0 MIN)
 TOTAL WALL CLOCK TIME=          2.7 SECONDS, CPU UTILIZATION IS   100.00%
 STEP CPU TIME =     0.00 TOTAL CPU TIME =          2.7 (      0.0 MIN)
 TOTAL WALL CLOCK TIME=          2.7 SECONDS, CPU UTILIZATION IS   100.00%

 UNITS ARE HARTREE/BOHR    E'X               E'Y               E'Z 
    1 CL              -0.000038299      -0.000028213       0.000007403
    2 C               -0.000050930      -0.000031396       0.000058191
    3 C               -0.000079509       0.000074291       0.000049295
    4 O                0.000083079       0.000010557      -0.000149396
    5 H               -0.000012063      -0.000070106      -0.000028900
    6 H                0.000032980      -0.000006850       0.000036442
    7 H               -0.000026672       0.000012769       0.000006453
    8 O                0.001487237      -0.001861503       0.000915407
    9 H               -0.000668456       0.001261924       0.000385227
   10 H               -0.000728362       0.000617385      -0.001267982
   11 O               -0.000135058      -0.000230178       0.000324689
   12 H                0.000124511       0.000183399      -0.000387502
   13 H                0.000011542       0.000067921       0.000050672
  $VIB   
          IVIB=   1 IATOM=   8 ICOORD=   1 E=      -62.0866135894
 -3.829932433E-05-2.821306343E-05 7.402744825E-06-5.093006799E-05-3.139638827E-05
  5.819051300E-05-7.950876963E-05 7.429085024E-05 4.929491628E-05 8.307874791E-05
  1.055734308E-05-1.493963970E-04-1.206276744E-05-7.010555881E-05-2.889999019E-05
  3.298002881E-05-6.850206212E-06 3.644228134E-05-2.667194498E-05 1.276876222E-05
  6.453318321E-06 1.487236683E-03-1.861503151E-03 9.154073987E-04-6.684555095E-04
  1.261924426E-03 3.852268086E-04-7.283618490E-04 6.173852964E-04-1.267981743E-03
 -1.350578339E-04-2.301777266E-04 3.246894510E-04 1.245110904E-04 1.833986386E-04
 -3.875015470E-04 1.154151648E-05 6.792077782E-05 5.067224480E-05
 -3.710879545E-01 3.414440322E+00 7.183840476E-01
1   ATOM  8
                                        -------------------
   COORD  2                             NUCLEAR COORDINATES
                                        -------------------
     VIB  1

                       ATOM             X              Y              Z

                 1  CL               2.880774       0.521130       1.761640
                 2  C                5.308278      -0.128388      -0.392496
                 3  C                5.534573       1.894072      -2.363140
                 4  O                6.680673       1.514710      -4.359031
                 5  H                4.890403      -2.008004      -1.264775
                 6  H                7.113080      -0.249671       0.708326
                 7  H                4.647970       3.750256      -1.926160
                 8  O                8.522985      -2.929601      -7.958883
                 9  H                7.915684      -1.508058      -7.010373
                10  H                7.863622      -2.652344      -9.631102
                11  O                5.916392       0.881425      -9.768107
                12  H                6.652308       1.565260     -11.285217
                13  H                6.239441       2.166117      -8.517505

 MOPAC ONE- AND TWO-ELECTRON INTEGRALS REQUIRE      2933 WORDS.
 ...... END OF ONE- AND TWO-ELECTRON INTEGRALS......
 STEP CPU TIME =     0.00 TOTAL CPU TIME =          2.7 (      0.0 MIN)
 TOTAL WALL CLOCK TIME=          2.7 SECONDS, CPU UTILIZATION IS   100.00%
 ...... END OF ONE-ELECTRON INTEGRALS ......
 STEP CPU TIME =     0.00 TOTAL CPU TIME =          2.7 (      0.0 MIN)
 TOTAL WALL CLOCK TIME=          2.7 SECONDS, CPU UTILIZATION IS   100.00%

     ----------------------------
     INPUT FOR TESSERA DEFINITION
     ----------------------------
     NTSALL  =        60     MTHALL  =         4
     MTHAUT  =         0     AUTFRE  =    2.0000
     NTSFRZ  =        60     KEEPSM  =         0
     AREAKP  =   10.0000     BONDRY  =    1.0000
     AREATL  =    0.0100

     SPHERE     INITS       METHOD
          1        60       FIXPVA
          2        60       FIXPVA
          3        60       FIXPVA
          4        60       FIXPVA
          5        60       FIXPVA
          6        60       FIXPVA
          7        60       FIXPVA
          8        60       FIXPVA
          9        60       FIXPVA
         10        60       FIXPVA
         11        60       FIXPVA
         12        60       FIXPVA
         13        60       FIXPVA

     ------------------------------
      FIXPVA TESSELLATION FOR PCM
         PEIFENG SU AND HUI LI
     UNIVERSITY OF NEBRASKA-LINCOLN
     ------------------------------


     INPUT FOR CAVITY DEFINITION 
     ---------------------------
   ATOM               COORDINATES                RADIUS       EPS
      1      1.5244      0.2758      0.9322      1.8100     78.3900
      2      2.8090     -0.0679     -0.2077      1.7000     78.3900
      3      2.9288      1.0023     -1.2505      1.7000     78.3900
      4      3.5353      0.8015     -2.3067      1.5000     78.3900
      5      2.5879     -1.0626     -0.6693      1.2000     78.3900
      6      3.7641     -0.1321      0.3748      1.2000     78.3900
      7      2.4596      1.9845     -1.0193      1.2000     78.3900
      8      4.5102     -1.5503     -4.2117      1.5000     78.3900
      9      4.1888     -0.7980     -3.7097      1.2000     78.3900
     10      4.1612     -1.4036     -5.0966      1.2000     78.3900
     11      3.1308      0.4664     -5.1691      1.5000     78.3900
     12      3.5202      0.8283     -5.9719      1.2000     78.3900
     13      3.3018      1.1463     -4.5073      1.2000     78.3900

 MEMORY USED TO GENERATE CAVITY=    262582


 TOTAL NUMBER OF SPHERES=    13
 SPHERE           CENTER  (X,Y,Z) (A)               RADIUS (A)      AREA(A*A)
     1   1.524440000   0.275770000   0.932220000   2.172000000  38.490629521
     2   2.809020000  -0.067940000  -0.207700000   2.040000000   3.657223925
     3   2.928770000   1.002300000  -1.250520000   2.040000000  12.181771764
     4   3.535260000   0.801550000  -2.306700000   1.800000000   8.977697831
     5   2.587890000  -1.062590000  -0.669290000   1.440000000   7.104122093
     6   3.764080000  -0.132120000   0.374830000   1.440000000   8.266216870
     7   2.459600000   1.984550000  -1.019280000   1.440000000   7.030749145
     8   4.510170000  -1.550278228  -4.211660000   1.800000000  20.269213938
     9   4.188800000  -0.798030000  -3.709730000   1.440000000   0.575726237
    10   4.161250000  -1.403560000  -5.096560000   1.440000000   4.884226866
    11   3.130820000   0.466430000  -5.169060000   1.800000000  12.439258795
    12   3.520250000   0.828300000  -5.971880000   1.440000000   9.844892100
    13   3.301770000   1.146260000  -4.507270000   1.440000000   4.778707037

 TOTAL NUMBER OF TESSERAE=     272
 SURFACE AREA=   138.50043612(A**2)    CAVITY VOLUME=    119.39524120 (A**3)
 STEP CPU TIME =     0.00 TOTAL CPU TIME =          2.7 (      0.0 MIN)
 TOTAL WALL CLOCK TIME=          2.7 SECONDS, CPU UTILIZATION IS   100.00%

          THE SOLUTE IS ENCLOSED IN ONE CAVITY
 DONE CHECKING SEPARATION.
 STEP CPU TIME =     0.00 TOTAL CPU TIME =          2.7 (      0.0 MIN)
 TOTAL WALL CLOCK TIME=          2.7 SECONDS, CPU UTILIZATION IS   100.00%
 
 ..... DONE SETTING UP PCM CALCULATION .....
 STEP CPU TIME =     0.00 TOTAL CPU TIME =          2.7 (      0.0 MIN)
 TOTAL WALL CLOCK TIME=          2.7 SECONDS, CPU UTILIZATION IS   100.00%

          --------------------------
               R-AM1 SCF CALCULATION
          --------------------------
     DENSITY MATRIX CONV=  1.00E-05

 ITER EX DEM     TOTAL ENERGY        E CHANGE  DENSITY CHANGE    DIIS ERROR
   1  0  0      -62.0865948648   -62.0865948648   0.001658468   0.000000000
   2  1  0      -62.0866019871    -0.0000071223   0.000856046   0.000000000
   3  2  0      -62.0866033576    -0.0000013705   0.000453467   0.000000000
   4  3  0      -62.0866037048    -0.0000003472   0.000240450   0.000000000
   5  4  0      -62.0866038005    -0.0000000956   0.000127815   0.000000000
   6  5  0      -62.0866038279    -0.0000000274   0.000068176   0.000000000
   7  6  0      -62.0866038359    -0.0000000080   0.000036508   0.000000000
   8  7  0      -62.0866038383    -0.0000000024   0.000019631   0.000000000
   9  8  0      -62.0866038390    -0.0000000007   0.000010598   0.000000000
  10  9  0      -62.0866038392    -0.0000000002   0.000005744   0.000000000

          -----------------
          DENSITY CONVERGED
          -----------------
     TIME TO FORM FOCK OPERATORS=       0.1 SECONDS (       0.0 SEC/ITER)
     TIME TO SOLVE SCF EQUATIONS=       0.0 SECONDS (       0.0 SEC/ITER)

 FINAL R-AM1 ENERGY IS      -62.0866038392 AFTER  10 ITERATIONS

 HEAT OF FORMATION IS      -182.97756 KCAL/MOL
 
  
   PCM ASC=      0.0394072190
   GCAVP  =      0.0000000000
   GDISP  =      0.0000000000
   GREP   =      0.0000000000
 ...... END OF RHF CALCULATION ......
 STEP CPU TIME =     0.11 TOTAL CPU TIME =          2.9 (      0.0 MIN)
 TOTAL WALL CLOCK TIME=          2.9 SECONDS, CPU UTILIZATION IS   100.00%
 
 .... DONE WITH PCM CONTRIBUTION TO GRADIENT ....
 STEP CPU TIME =     0.00 TOTAL CPU TIME =          2.9 (      0.0 MIN)
 TOTAL WALL CLOCK TIME=          2.9 SECONDS, CPU UTILIZATION IS   100.00%
 STEP CPU TIME =     0.00 TOTAL CPU TIME =          2.9 (      0.0 MIN)
 TOTAL WALL CLOCK TIME=          2.9 SECONDS, CPU UTILIZATION IS   100.00%

 UNITS ARE HARTREE/BOHR    E'X               E'Y               E'Z 
    1 CL              -0.000038135      -0.000028132       0.000007308
    2 C               -0.000051279      -0.000031248       0.000057734
    3 C               -0.000081380       0.000072522       0.000053901
    4 O                0.000088681      -0.000001965      -0.000165546
    5 H               -0.000011818      -0.000071013      -0.000030074
    6 H                0.000033243      -0.000006804       0.000036417
    7 H               -0.000026025       0.000013286       0.000005851
    8 O               -0.001852154       0.003461247       0.000866246
    9 H                0.001395907      -0.002797725      -0.001241832
   10 H                0.000522072      -0.000598596       0.000398049
   11 O               -0.000121456      -0.000271317       0.000349515
   12 H                0.000129273       0.000185165      -0.000390979
   13 H                0.000013072       0.000074578       0.000053410
  $VIB   
          IVIB=   1 IATOM=   8 ICOORD=   2 E=      -62.0866038392
 -3.813512164E-05-2.813205925E-05 7.308357417E-06-5.127850562E-05-3.124750942E-05
  5.773391024E-05-8.138035944E-05 7.252241541E-05 5.390115791E-05 8.868062919E-05
 -1.964800692E-06-1.655457196E-04-1.181844154E-05-7.101263831E-05-3.007422781E-05
  3.324252891E-05-6.803813911E-06 3.641702663E-05-2.602465568E-05 1.328568719E-05
  5.851154061E-06-1.852154033E-03 3.461246962E-03 8.662457746E-04 1.395906904E-03
 -2.797724945E-03-1.241832367E-03 5.220717650E-04-5.985958655E-04 3.980487899E-04
 -1.214562466E-04-2.713167270E-04 3.495153323E-04 1.292734105E-04 1.851648441E-04
 -3.909787780E-04 1.307212612E-05 7.457845021E-05 5.340958893E-05
 -3.599224489E-01 3.406937865E+00 7.174463130E-01
1   ATOM  8
                                        -------------------
   COORD  3                             NUCLEAR COORDINATES
                                        -------------------
     VIB  1

                       ATOM             X              Y              Z

                 1  CL               2.880774       0.521130       1.761640
                 2  C                5.308278      -0.128388      -0.392496
                 3  C                5.534573       1.894072      -2.363140
                 4  O                6.680673       1.514710      -4.359031
                 5  H                4.890403      -2.008004      -1.264775
                 6  H                7.113080      -0.249671       0.708326
                 7  H                4.647970       3.750256      -1.926160
                 8  O                8.522985      -2.939601      -7.948883
                 9  H                7.915684      -1.508058      -7.010373
                10  H                7.863622      -2.652344      -9.631102
                11  O                5.916392       0.881425      -9.768107
                12  H                6.652308       1.565260     -11.285217
                13  H                6.239441       2.166117      -8.517505

 MOPAC ONE- AND TWO-ELECTRON INTEGRALS REQUIRE      2933 WORDS.
 ...... END OF ONE- AND TWO-ELECTRON INTEGRALS......
 STEP CPU TIME =     0.00 TOTAL CPU TIME =          2.9 (      0.0 MIN)
 TOTAL WALL CLOCK TIME=          2.9 SECONDS, CPU UTILIZATION IS   100.00%
 ...... END OF ONE-ELECTRON INTEGRALS ......
 STEP CPU TIME =     0.00 TOTAL CPU TIME =          2.9 (      0.0 MIN)
 TOTAL WALL CLOCK TIME=          2.9 SECONDS, CPU UTILIZATION IS   100.00%

     ----------------------------
     INPUT FOR TESSERA DEFINITION
     ----------------------------
     NTSALL  =        60     MTHALL  =         4
     MTHAUT  =         0     AUTFRE  =    2.0000
     NTSFRZ  =        60     KEEPSM  =         0
     AREAKP  =   10.0000     BONDRY  =    1.0000
     AREATL  =    0.0100

     SPHERE     INITS       METHOD
          1        60       FIXPVA
          2        60       FIXPVA
          3        60       FIXPVA
          4        60       FIXPVA
          5        60       FIXPVA
          6        60       FIXPVA
          7        60       FIXPVA
          8        60       FIXPVA
          9        60       FIXPVA
         10        60       FIXPVA
         11        60       FIXPVA
         12        60       FIXPVA
         13        60       FIXPVA

     ------------------------------
      FIXPVA TESSELLATION FOR PCM
         PEIFENG SU AND HUI LI
     UNIVERSITY OF NEBRASKA-LINCOLN
     ------------------------------


     INPUT FOR CAVITY DEFINITION 
     ---------------------------
   ATOM               COORDINATES                RADIUS       EPS
      1      1.5244      0.2758      0.9322      1.8100     78.3900
      2      2.8090     -0.0679     -0.2077      1.7000     78.3900
      3      2.9288      1.0023     -1.2505      1.7000     78.3900
      4      3.5353      0.8015     -2.3067      1.5000     78.3900
      5      2.5879     -1.0626     -0.6693      1.2000     78.3900
      6      3.7641     -0.1321      0.3748      1.2000     78.3900
      7      2.4596      1.9845     -1.0193      1.2000     78.3900
      8      4.5102     -1.5556     -4.2064      1.5000     78.3900
      9      4.1888     -0.7980     -3.7097      1.2000     78.3900
     10      4.1612     -1.4036     -5.0966      1.2000     78.3900
     11      3.1308      0.4664     -5.1691      1.5000     78.3900
     12      3.5202      0.8283     -5.9719      1.2000     78.3900
     13      3.3018      1.1463     -4.5073      1.2000     78.3900

 MEMORY USED TO GENERATE CAVITY=    262582


 TOTAL NUMBER OF SPHERES=    13
 SPHERE           CENTER  (X,Y,Z) (A)               RADIUS (A)      AREA(A*A)
     1   1.524440000   0.275770000   0.932220000   2.172000000  38.490629521
     2   2.809020000  -0.067940000  -0.207700000   2.040000000   3.657223925
     3   2.928770000   1.002300000  -1.250520000   2.040000000  12.181771764
     4   3.535260000   0.801550000  -2.306700000   1.800000000   8.970581251
     5   2.587890000  -1.062590000  -0.669290000   1.440000000   7.101908754
     6   3.764080000  -0.132120000   0.374830000   1.440000000   8.266216870
     7   2.459600000   1.984550000  -1.019280000   1.440000000   7.030749145
     8   4.510170000  -1.555570000  -4.206368228   1.800000000  20.256657646
     9   4.188800000  -0.798030000  -3.709730000   1.440000000   0.581532937
    10   4.161250000  -1.403560000  -5.096560000   1.440000000   4.915012340
    11   3.130820000   0.466430000  -5.169060000   1.800000000  12.439258795
    12   3.520250000   0.828300000  -5.971880000   1.440000000   9.846780199
    13   3.301770000   1.146260000  -4.507270000   1.440000000   4.778707311

 TOTAL NUMBER OF TESSERAE=     271
 SURFACE AREA=   138.51703046(A**2)    CAVITY VOLUME=    119.47030540 (A**3)
 STEP CPU TIME =     0.01 TOTAL CPU TIME =          2.9 (      0.0 MIN)
 TOTAL WALL CLOCK TIME=          2.9 SECONDS, CPU UTILIZATION IS   100.00%

          THE SOLUTE IS ENCLOSED IN ONE CAVITY
 DONE CHECKING SEPARATION.
 STEP CPU TIME =     0.00 TOTAL CPU TIME =          2.9 (      0.0 MIN)
 TOTAL WALL CLOCK TIME=          2.9 SECONDS, CPU UTILIZATION IS   100.00%
 
 ..... DONE SETTING UP PCM CALCULATION .....
 STEP CPU TIME =     0.00 TOTAL CPU TIME =          2.9 (      0.0 MIN)
 TOTAL WALL CLOCK TIME=          2.9 SECONDS, CPU UTILIZATION IS   100.00%

          --------------------------
               R-AM1 SCF CALCULATION
          --------------------------
     DENSITY MATRIX CONV=  1.00E-05

 ITER EX DEM     TOTAL ENERGY        E CHANGE  DENSITY CHANGE    DIIS ERROR
   1  0  0      -62.0865879653   -62.0865879653   0.001676764   0.000000000
   2  1  0      -62.0865956363    -0.0000076710   0.000667596   0.000000000
   3  2  0      -62.0865965024    -0.0000008661   0.000282632   0.000000000
   4  3  0      -62.0865966592    -0.0000001568   0.000130746   0.000000000
   5  4  0      -62.0865966936    -0.0000000344   0.000066972   0.000000000
   6  5  0      -62.0865967020    -0.0000000084   0.000034609   0.000000000
   7  6  0      -62.0865967041    -0.0000000022   0.000018066   0.000000000
   8  7  0      -62.0865967048    -0.0000000006   0.000009524   0.000000000
   9  8  0      -62.0865967049    -0.0000000002   0.000005065   0.000000000

          -----------------
          DENSITY CONVERGED
          -----------------
     TIME TO FORM FOCK OPERATORS=       0.1 SECONDS (       0.0 SEC/ITER)
     TIME TO SOLVE SCF EQUATIONS=       0.0 SECONDS (       0.0 SEC/ITER)

 FINAL R-AM1 ENERGY IS      -62.0865967049 AFTER   9 ITERATIONS

 HEAT OF FORMATION IS      -182.97309 KCAL/MOL
 
  
   PCM ASC=      0.0393929179
   GCAVP  =      0.0000000000
   GDISP  =      0.0000000000
   GREP   =      0.0000000000
 ...... END OF RHF CALCULATION ......
 STEP CPU TIME =     0.10 TOTAL CPU TIME =          3.0 (      0.0 MIN)
 TOTAL WALL CLOCK TIME=          3.0 SECONDS, CPU UTILIZATION IS   100.00%
 
 .... DONE WITH PCM CONTRIBUTION TO GRADIENT ....
 STEP CPU TIME =     0.00 TOTAL CPU TIME =          3.0 (      0.0 MIN)
 TOTAL WALL CLOCK TIME=          3.0 SECONDS, CPU UTILIZATION IS   100.00%
 STEP CPU TIME =     0.00 TOTAL CPU TIME =          3.0 (      0.0 MIN)
 TOTAL WALL CLOCK TIME=          3.0 SECONDS, CPU UTILIZATION IS   100.00%

 UNITS ARE HARTREE/BOHR    E'X               E'Y               E'Z 
    1 CL              -0.000037809      -0.000028066       0.000007017
    2 C               -0.000051548      -0.000031126       0.000057134
    3 C               -0.000083294       0.000073465       0.000057885
    4 O                0.000089642      -0.000005109      -0.000168356
    5 H               -0.000011074      -0.000072518      -0.000031287
    6 H                0.000033532      -0.000006772       0.000036561
    7 H               -0.000025735       0.000013512       0.000005535
    8 O                0.000901430       0.000840226       0.004854328
    9 H                0.000640036      -0.001616779      -0.001354829
   10 H               -0.001450640       0.000808986      -0.003471773
   11 O               -0.000143115      -0.000226967       0.000344442
   12 H                0.000127484       0.000179552      -0.000385747
   13 H                0.000011091       0.000071597       0.000049090
  $VIB   
          IVIB=   1 IATOM=   8 ICOORD=   3 E=      -62.0865967049
 -3.780889897E-05-2.806588685E-05 7.016773006E-06-5.154810857E-05-3.112594364E-05
  5.713445138E-05-8.329409103E-05 7.346460002E-05 5.788538348E-05 8.964216498E-05
 -5.109430550E-06-1.683561887E-04-1.107445560E-05-7.251844197E-05-3.128685672E-05
  3.353213309E-05-6.772128836E-06 3.656124115E-05-2.573451694E-05 1.351168784E-05
  5.534680084E-06 9.014301055E-04 8.402256989E-04 4.854327712E-03 6.400355218E-04
 -1.616778767E-03-1.354829356E-03-1.450639922E-03 8.089864521E-04-3.471772764E-03
 -1.431152461E-04-2.269672123E-04 3.444418298E-04 1.274838246E-04 1.795524284E-04
 -3.857471895E-04 1.109148892E-05 7.159694435E-05 4.909028347E-05
 -3.541962924E-01 3.419151283E+00 7.065835014E-01
1   ATOM  9
                                        -------------------
   COORD  1                             NUCLEAR COORDINATES
                                        -------------------
     VIB  1

                       ATOM             X              Y              Z

                 1  CL               2.880774       0.521130       1.761640
                 2  C                5.308278      -0.128388      -0.392496
                 3  C                5.534573       1.894072      -2.363140
                 4  O                6.680673       1.514710      -4.359031
                 5  H                4.890403      -2.008004      -1.264775
                 6  H                7.113080      -0.249671       0.708326
                 7  H                4.647970       3.750256      -1.926160
                 8  O                8.522985      -2.939601      -7.958883
                 9  H                7.925684      -1.508058      -7.010373
                10  H                7.863622      -2.652344      -9.631102
                11  O                5.916392       0.881425      -9.768107
                12  H                6.652308       1.565260     -11.285217
                13  H                6.239441       2.166117      -8.517505

 MOPAC ONE- AND TWO-ELECTRON INTEGRALS REQUIRE      2933 WORDS.
 ...... END OF ONE- AND TWO-ELECTRON INTEGRALS......
 STEP CPU TIME =     0.00 TOTAL CPU TIME =          3.0 (      0.0 MIN)
 TOTAL WALL CLOCK TIME=          3.0 SECONDS, CPU UTILIZATION IS   100.00%
 ...... END OF ONE-ELECTRON INTEGRALS ......
 STEP CPU TIME =     0.00 TOTAL CPU TIME =          3.0 (      0.0 MIN)
 TOTAL WALL CLOCK TIME=          3.0 SECONDS, CPU UTILIZATION IS   100.00%

     ----------------------------
     INPUT FOR TESSERA DEFINITION
     ----------------------------
     NTSALL  =        60     MTHALL  =         4
     MTHAUT  =         0     AUTFRE  =    2.0000
     NTSFRZ  =        60     KEEPSM  =         0
     AREAKP  =   10.0000     BONDRY  =    1.0000
     AREATL  =    0.0100

     SPHERE     INITS       METHOD
          1        60       FIXPVA
          2        60       FIXPVA
          3        60       FIXPVA
          4        60       FIXPVA
          5        60       FIXPVA
          6        60       FIXPVA
          7        60       FIXPVA
          8        60       FIXPVA
          9        60       FIXPVA
         10        60       FIXPVA
         11        60       FIXPVA
         12        60       FIXPVA
         13        60       FIXPVA

     ------------------------------
      FIXPVA TESSELLATION FOR PCM
         PEIFENG SU AND HUI LI
     UNIVERSITY OF NEBRASKA-LINCOLN
     ------------------------------


     INPUT FOR CAVITY DEFINITION 
     ---------------------------
   ATOM               COORDINATES                RADIUS       EPS
      1      1.5244      0.2758      0.9322      1.8100     78.3900
      2      2.8090     -0.0679     -0.2077      1.7000     78.3900
      3      2.9288      1.0023     -1.2505      1.7000     78.3900
      4      3.5353      0.8015     -2.3067      1.5000     78.3900
      5      2.5879     -1.0626     -0.6693      1.2000     78.3900
      6      3.7641     -0.1321      0.3748      1.2000     78.3900
      7      2.4596      1.9845     -1.0193      1.2000     78.3900
      8      4.5102     -1.5556     -4.2117      1.5000     78.3900
      9      4.1941     -0.7980     -3.7097      1.2000     78.3900
     10      4.1612     -1.4036     -5.0966      1.2000     78.3900
     11      3.1308      0.4664     -5.1691      1.5000     78.3900
     12      3.5202      0.8283     -5.9719      1.2000     78.3900
     13      3.3018      1.1463     -4.5073      1.2000     78.3900

 MEMORY USED TO GENERATE CAVITY=    262582


 TOTAL NUMBER OF SPHERES=    13
 SPHERE           CENTER  (X,Y,Z) (A)               RADIUS (A)      AREA(A*A)
     1   1.524440000   0.275770000   0.932220000   2.172000000  38.490629521
     2   2.809020000  -0.067940000  -0.207700000   2.040000000   3.657216930
     3   2.928770000   1.002300000  -1.250520000   2.040000000  12.181771764
     4   3.535260000   0.801550000  -2.306700000   1.800000000   8.968554011
     5   2.587890000  -1.062590000  -0.669290000   1.440000000   7.108279749
     6   3.764080000  -0.132120000   0.374830000   1.440000000   8.266216870
     7   2.459600000   1.984550000  -1.019280000   1.440000000   7.030749145
     8   4.510170000  -1.555570000  -4.211660000   1.800000000  20.269602740
     9   4.194091772  -0.798030000  -3.709730000   1.440000000   0.610565305
    10   4.161250000  -1.403560000  -5.096560000   1.440000000   4.865782496
    11   3.130820000   0.466430000  -5.169060000   1.800000000  12.439258795
    12   3.520250000   0.828300000  -5.971880000   1.440000000   9.845724104
    13   3.301770000   1.146260000  -4.507270000   1.440000000   4.778594834

 TOTAL NUMBER OF TESSERAE=     272
 SURFACE AREA=   138.51294626(A**2)    CAVITY VOLUME=    119.39216537 (A**3)
 STEP CPU TIME =     0.00 TOTAL CPU TIME =          3.0 (      0.0 MIN)
 TOTAL WALL CLOCK TIME=          3.0 SECONDS, CPU UTILIZATION IS   100.00%

          THE SOLUTE IS ENCLOSED IN ONE CAVITY
 DONE CHECKING SEPARATION.
 STEP CPU TIME =     0.00 TOTAL CPU TIME =          3.0 (      0.0 MIN)
 TOTAL WALL CLOCK TIME=          3.0 SECONDS, CPU UTILIZATION IS   100.00%
 
 ..... DONE SETTING UP PCM CALCULATION .....
 STEP CPU TIME =     0.00 TOTAL CPU TIME =          3.0 (      0.0 MIN)
 TOTAL WALL CLOCK TIME=          3.0 SECONDS, CPU UTILIZATION IS   100.00%

          --------------------------
               R-AM1 SCF CALCULATION
          --------------------------
     DENSITY MATRIX CONV=  1.00E-05

 ITER EX DEM     TOTAL ENERGY        E CHANGE  DENSITY CHANGE    DIIS ERROR
   1  0  0      -62.0866119779   -62.0866119779   0.002002194   0.000000000
   2  1  0      -62.0866164074    -0.0000044295   0.001043300   0.000000000
   3  2  0      -62.0866175281    -0.0000011207   0.000550094   0.000000000
   4  3  0      -62.0866178397    -0.0000003116   0.000292387   0.000000000
   5  4  0      -62.0866179293    -0.0000000896   0.000156348   0.000000000
   6  5  0      -62.0866179554    -0.0000000261   0.000084003   0.000000000
   7  6  0      -62.0866179631    -0.0000000077   0.000045309   0.000000000
   8  7  0      -62.0866179655    -0.0000000023   0.000024516   0.000000000
   9  8  0      -62.0866179661    -0.0000000007   0.000013301   0.000000000
  10  9  0      -62.0866179663    -0.0000000002   0.000007232   0.000000000

          -----------------
          DENSITY CONVERGED
          -----------------
     TIME TO FORM FOCK OPERATORS=       0.1 SECONDS (       0.0 SEC/ITER)
     TIME TO SOLVE SCF EQUATIONS=       0.0 SECONDS (       0.0 SEC/ITER)

 FINAL R-AM1 ENERGY IS      -62.0866179663 AFTER  10 ITERATIONS

 HEAT OF FORMATION IS      -182.98643 KCAL/MOL
 
  
   PCM ASC=      0.0394066586
   GCAVP  =      0.0000000000
   GDISP  =      0.0000000000
   GREP   =      0.0000000000
 ...... END OF RHF CALCULATION ......
 STEP CPU TIME =     0.12 TOTAL CPU TIME =          3.1 (      0.1 MIN)
 TOTAL WALL CLOCK TIME=          3.1 SECONDS, CPU UTILIZATION IS   100.00%
 
 .... DONE WITH PCM CONTRIBUTION TO GRADIENT ....
 STEP CPU TIME =     0.00 TOTAL CPU TIME =          3.1 (      0.1 MIN)
 TOTAL WALL CLOCK TIME=          3.1 SECONDS, CPU UTILIZATION IS   100.00%
 STEP CPU TIME =     0.00 TOTAL CPU TIME =          3.1 (      0.1 MIN)
 TOTAL WALL CLOCK TIME=          3.1 SECONDS, CPU UTILIZATION IS   100.00%

 UNITS ARE HARTREE/BOHR    E'X               E'Y               E'Z 
    1 CL              -0.000037575      -0.000028170       0.000006849
    2 C               -0.000051999      -0.000031063       0.000057805
    3 C               -0.000084298       0.000073431       0.000058830
    4 O                0.000078617       0.000012958      -0.000157939
    5 H               -0.000011736      -0.000071510      -0.000030373
    6 H                0.000033422      -0.000006737       0.000036534
    7 H               -0.000025449       0.000013760       0.000005842
    8 O               -0.000637370       0.001364368       0.000636550
    9 H                0.000615826      -0.001172432      -0.000504388
   10 H                0.000137913      -0.000184025      -0.000090077
   11 O               -0.000157903      -0.000228886       0.000318753
   12 H                0.000129701       0.000178095      -0.000388291
   13 H                0.000010853       0.000080211       0.000049907
  $VIB   
          IVIB=   1 IATOM=   9 ICOORD=   1 E=      -62.0866179663
 -3.757537926E-05-2.817010032E-05 6.848676984E-06-5.199922291E-05-3.106298153E-05
  5.780470675E-05-8.429771343E-05 7.343051712E-05 5.882972902E-05 7.861684608E-05
  1.295764541E-05-1.579389198E-04-1.173619737E-05-7.150976100E-05-3.037343977E-05
  3.342207846E-05-6.736530498E-06 3.653398723E-05-2.544949101E-05 1.375957552E-05
  5.841794733E-06-6.373699127E-04 1.364368151E-03 6.365498822E-04 6.158261117E-04
 -1.172432133E-03-5.043875618E-04 1.379126218E-04-1.840246774E-04-9.007742097E-05
 -1.579033441E-04-2.288861851E-04 3.187531953E-04 1.297005136E-04 1.780950602E-04
 -3.882912027E-04 1.085308917E-05 8.021141925E-05 4.990657284E-05
 -3.484889630E-01 3.421064969E+00 7.174484390E-01
1   ATOM  9
                                        -------------------
   COORD  2                             NUCLEAR COORDINATES
                                        -------------------
     VIB  1

                       ATOM             X              Y              Z

                 1  CL               2.880774       0.521130       1.761640
                 2  C                5.308278      -0.128388      -0.392496
                 3  C                5.534573       1.894072      -2.363140
                 4  O                6.680673       1.514710      -4.359031
                 5  H                4.890403      -2.008004      -1.264775
                 6  H                7.113080      -0.249671       0.708326
                 7  H                4.647970       3.750256      -1.926160
                 8  O                8.522985      -2.939601      -7.958883
                 9  H                7.915684      -1.498058      -7.010373
                10  H                7.863622      -2.652344      -9.631102
                11  O                5.916392       0.881425      -9.768107
                12  H                6.652308       1.565260     -11.285217
                13  H                6.239441       2.166117      -8.517505

 MOPAC ONE- AND TWO-ELECTRON INTEGRALS REQUIRE      2933 WORDS.
 ...... END OF ONE- AND TWO-ELECTRON INTEGRALS......
 STEP CPU TIME =     0.00 TOTAL CPU TIME =          3.1 (      0.1 MIN)
 TOTAL WALL CLOCK TIME=          3.1 SECONDS, CPU UTILIZATION IS   100.00%
 ...... END OF ONE-ELECTRON INTEGRALS ......
 STEP CPU TIME =     0.00 TOTAL CPU TIME =          3.1 (      0.1 MIN)
 TOTAL WALL CLOCK TIME=          3.1 SECONDS, CPU UTILIZATION IS   100.00%

     ----------------------------
     INPUT FOR TESSERA DEFINITION
     ----------------------------
     NTSALL  =        60     MTHALL  =         4
     MTHAUT  =         0     AUTFRE  =    2.0000
     NTSFRZ  =        60     KEEPSM  =         0
     AREAKP  =   10.0000     BONDRY  =    1.0000
     AREATL  =    0.0100

     SPHERE     INITS       METHOD
          1        60       FIXPVA
          2        60       FIXPVA
          3        60       FIXPVA
          4        60       FIXPVA
          5        60       FIXPVA
          6        60       FIXPVA
          7        60       FIXPVA
          8        60       FIXPVA
          9        60       FIXPVA
         10        60       FIXPVA
         11        60       FIXPVA
         12        60       FIXPVA
         13        60       FIXPVA

     ------------------------------
      FIXPVA TESSELLATION FOR PCM
         PEIFENG SU AND HUI LI
     UNIVERSITY OF NEBRASKA-LINCOLN
     ------------------------------


     INPUT FOR CAVITY DEFINITION 
     ---------------------------
   ATOM               COORDINATES                RADIUS       EPS
      1      1.5244      0.2758      0.9322      1.8100     78.3900
      2      2.8090     -0.0679     -0.2077      1.7000     78.3900
      3      2.9288      1.0023     -1.2505      1.7000     78.3900
      4      3.5353      0.8015     -2.3067      1.5000     78.3900
      5      2.5879     -1.0626     -0.6693      1.2000     78.3900
      6      3.7641     -0.1321      0.3748      1.2000     78.3900
      7      2.4596      1.9845     -1.0193      1.2000     78.3900
      8      4.5102     -1.5556     -4.2117      1.5000     78.3900
      9      4.1888     -0.7927     -3.7097      1.2000     78.3900
     10      4.1612     -1.4036     -5.0966      1.2000     78.3900
     11      3.1308      0.4664     -5.1691      1.5000     78.3900
     12      3.5202      0.8283     -5.9719      1.2000     78.3900
     13      3.3018      1.1463     -4.5073      1.2000     78.3900

 MEMORY USED TO GENERATE CAVITY=    262582


 TOTAL NUMBER OF SPHERES=    13
 SPHERE           CENTER  (X,Y,Z) (A)               RADIUS (A)      AREA(A*A)
     1   1.524440000   0.275770000   0.932220000   2.172000000  38.490629521
     2   2.809020000  -0.067940000  -0.207700000   2.040000000   3.657222375
     3   2.928770000   1.002300000  -1.250520000   2.040000000  12.181771764
     4   3.535260000   0.801550000  -2.306700000   1.800000000   8.974162505
     5   2.587890000  -1.062590000  -0.669290000   1.440000000   7.106105909
     6   3.764080000  -0.132120000   0.374830000   1.440000000   8.266216870
     7   2.459600000   1.984550000  -1.019280000   1.440000000   7.030749145
     8   4.510170000  -1.555570000  -4.211660000   1.800000000  20.269607022
     9   4.188800000  -0.792738228  -3.709730000   1.440000000   0.606014172
    10   4.161250000  -1.403560000  -5.096560000   1.440000000   4.865979779
    11   3.130820000   0.466430000  -5.169060000   1.800000000  12.439258795
    12   3.520250000   0.828300000  -5.971880000   1.440000000   9.845723896
    13   3.301770000   1.146260000  -4.507270000   1.440000000   4.778440200

 TOTAL NUMBER OF TESSERAE=     272
 SURFACE AREA=   138.51188195(A**2)    CAVITY VOLUME=    119.39512309 (A**3)
 STEP CPU TIME =     0.00 TOTAL CPU TIME =          3.1 (      0.1 MIN)
 TOTAL WALL CLOCK TIME=          3.1 SECONDS, CPU UTILIZATION IS   100.00%

          THE SOLUTE IS ENCLOSED IN ONE CAVITY
 DONE CHECKING SEPARATION.
 STEP CPU TIME =     0.00 TOTAL CPU TIME =          3.1 (      0.1 MIN)
 TOTAL WALL CLOCK TIME=          3.1 SECONDS, CPU UTILIZATION IS   100.00%
 
 ..... DONE SETTING UP PCM CALCULATION .....
 STEP CPU TIME =     0.00 TOTAL CPU TIME =          3.1 (      0.1 MIN)
 TOTAL WALL CLOCK TIME=          3.1 SECONDS, CPU UTILIZATION IS   100.00%

          --------------------------
               R-AM1 SCF CALCULATION
          --------------------------
     DENSITY MATRIX CONV=  1.00E-05

 ITER EX DEM     TOTAL ENERGY        E CHANGE  DENSITY CHANGE    DIIS ERROR
   1  0  0      -62.0866021124   -62.0866021124   0.001186135   0.000000000
   2  1  0      -62.0866063785    -0.0000042661   0.000529339   0.000000000
   3  2  0      -62.0866070034    -0.0000006249   0.000280698   0.000000000
   4  3  0      -62.0866071476    -0.0000001442   0.000149624   0.000000000
   5  4  0      -62.0866071860    -0.0000000384   0.000080075   0.000000000
   6  5  0      -62.0866071968    -0.0000000108   0.000043008   0.000000000
   7  6  0      -62.0866071999    -0.0000000031   0.000023625   0.000000000
   8  7  0      -62.0866072009    -0.0000000010   0.000013242   0.000000000
   9  8  0      -62.0866072010    -0.0000000002   0.000007391   0.000000000

          -----------------
          DENSITY CONVERGED
          -----------------
     TIME TO FORM FOCK OPERATORS=       0.1 SECONDS (       0.0 SEC/ITER)
     TIME TO SOLVE SCF EQUATIONS=       0.0 SECONDS (       0.0 SEC/ITER)

 FINAL R-AM1 ENERGY IS      -62.0866072010 AFTER   9 ITERATIONS

 HEAT OF FORMATION IS      -182.97967 KCAL/MOL
 
  
   PCM ASC=      0.0394021548
   GCAVP  =      0.0000000000
   GDISP  =      0.0000000000
   GREP   =      0.0000000000
 ...... END OF RHF CALCULATION ......
 STEP CPU TIME =     0.13 TOTAL CPU TIME =          3.2 (      0.1 MIN)
 TOTAL WALL CLOCK TIME=          3.2 SECONDS, CPU UTILIZATION IS   100.00%
 
 .... DONE WITH PCM CONTRIBUTION TO GRADIENT ....
 STEP CPU TIME =     0.01 TOTAL CPU TIME =          3.2 (      0.1 MIN)
 TOTAL WALL CLOCK TIME=          3.2 SECONDS, CPU UTILIZATION IS   100.00%
 STEP CPU TIME =     0.00 TOTAL CPU TIME =          3.3 (      0.1 MIN)
 TOTAL WALL CLOCK TIME=          3.3 SECONDS, CPU UTILIZATION IS   100.00%

 UNITS ARE HARTREE/BOHR    E'X               E'Y               E'Z 
    1 CL              -0.000039147      -0.000028179       0.000008343
    2 C               -0.000049382      -0.000031853       0.000058021
    3 C               -0.000075217       0.000079404       0.000038551
    4 O                0.000088188      -0.000020652      -0.000162631
    5 H               -0.000011607      -0.000070693      -0.000030054
    6 H                0.000032206      -0.000006867       0.000036452
    7 H               -0.000027816       0.000011514       0.000008175
    8 O                0.001257174      -0.002779142      -0.001583499
    9 H               -0.001158460       0.002764225       0.001676565
   10 H               -0.000044598       0.000122597      -0.000064654
   11 O               -0.000120356      -0.000270808       0.000343947
   12 H                0.000123877       0.000185792      -0.000385415
   13 H                0.000025137       0.000044662       0.000056200
  $VIB   
          IVIB=   1 IATOM=   9 ICOORD=   2 E=      -62.0866072010
 -3.914660897E-05-2.817924660E-05 8.342948050E-06-4.938183815E-05-3.185287369E-05
  5.802103987E-05-7.521692839E-05 7.940375703E-05 3.855073582E-05 8.818795121E-05
 -2.065164215E-05-1.626311453E-04-1.160729351E-05-7.069347654E-05-3.005399526E-05
  3.220597889E-05-6.866854983E-06 3.645230228E-05-2.781628437E-05 1.151380231E-05
  8.174523963E-06 1.257174182E-03-2.779142462E-03-1.583499058E-03-1.158459688E-03
  2.764225295E-03 1.676564648E-03-4.459763718E-05 1.225973970E-04-6.465433397E-05
 -1.203559401E-04-2.708081334E-04 3.439474411E-04 1.238772638E-04 1.857922110E-04
 -3.854154956E-04 2.513684227E-05 4.466222654E-05 5.620038885E-05
 -3.536064456E-01 3.422199971E+00 7.139432789E-01
1   ATOM  9
                                        -------------------
   COORD  3                             NUCLEAR COORDINATES
                                        -------------------
     VIB  1

                       ATOM             X              Y              Z

                 1  CL               2.880774       0.521130       1.761640
                 2  C                5.308278      -0.128388      -0.392496
                 3  C                5.534573       1.894072      -2.363140
                 4  O                6.680673       1.514710      -4.359031
                 5  H                4.890403      -2.008004      -1.264775
                 6  H                7.113080      -0.249671       0.708326
                 7  H                4.647970       3.750256      -1.926160
                 8  O                8.522985      -2.939601      -7.958883
                 9  H                7.915684      -1.508058      -7.000373
                10  H                7.863622      -2.652344      -9.631102
                11  O                5.916392       0.881425      -9.768107
                12  H                6.652308       1.565260     -11.285217
                13  H                6.239441       2.166117      -8.517505

 MOPAC ONE- AND TWO-ELECTRON INTEGRALS REQUIRE      2933 WORDS.
 ...... END OF ONE- AND TWO-ELECTRON INTEGRALS......
 STEP CPU TIME =     0.00 TOTAL CPU TIME =          3.3 (      0.1 MIN)
 TOTAL WALL CLOCK TIME=          3.3 SECONDS, CPU UTILIZATION IS   100.00%
 ...... END OF ONE-ELECTRON INTEGRALS ......
 STEP CPU TIME =     0.00 TOTAL CPU TIME =          3.3 (      0.1 MIN)
 TOTAL WALL CLOCK TIME=          3.3 SECONDS, CPU UTILIZATION IS   100.00%

     ----------------------------
     INPUT FOR TESSERA DEFINITION
     ----------------------------
     NTSALL  =        60     MTHALL  =         4
     MTHAUT  =         0     AUTFRE  =    2.0000
     NTSFRZ  =        60     KEEPSM  =         0
     AREAKP  =   10.0000     BONDRY  =    1.0000
     AREATL  =    0.0100

     SPHERE     INITS       METHOD
          1        60       FIXPVA
          2        60       FIXPVA
          3        60       FIXPVA
          4        60       FIXPVA
          5        60       FIXPVA
          6        60       FIXPVA
          7        60       FIXPVA
          8        60       FIXPVA
          9        60       FIXPVA
         10        60       FIXPVA
         11        60       FIXPVA
         12        60       FIXPVA
         13        60       FIXPVA

     ------------------------------
      FIXPVA TESSELLATION FOR PCM
         PEIFENG SU AND HUI LI
     UNIVERSITY OF NEBRASKA-LINCOLN
     ------------------------------


     INPUT FOR CAVITY DEFINITION 
     ---------------------------
   ATOM               COORDINATES                RADIUS       EPS
      1      1.5244      0.2758      0.9322      1.8100     78.3900
      2      2.8090     -0.0679     -0.2077      1.7000     78.3900
      3      2.9288      1.0023     -1.2505      1.7000     78.3900
      4      3.5353      0.8015     -2.3067      1.5000     78.3900
      5      2.5879     -1.0626     -0.6693      1.2000     78.3900
      6      3.7641     -0.1321      0.3748      1.2000     78.3900
      7      2.4596      1.9845     -1.0193      1.2000     78.3900
      8      4.5102     -1.5556     -4.2117      1.5000     78.3900
      9      4.1888     -0.7980     -3.7044      1.2000     78.3900
     10      4.1612     -1.4036     -5.0966      1.2000     78.3900
     11      3.1308      0.4664     -5.1691      1.5000     78.3900
     12      3.5202      0.8283     -5.9719      1.2000     78.3900
     13      3.3018      1.1463     -4.5073      1.2000     78.3900

 MEMORY USED TO GENERATE CAVITY=    262582


 TOTAL NUMBER OF SPHERES=    13
 SPHERE           CENTER  (X,Y,Z) (A)               RADIUS (A)      AREA(A*A)
     1   1.524440000   0.275770000   0.932220000   2.172000000  38.490629521
     2   2.809020000  -0.067940000  -0.207700000   2.040000000   3.657207800
     3   2.928770000   1.002300000  -1.250520000   2.040000000  12.181771764
     4   3.535260000   0.801550000  -2.306700000   1.800000000   8.964819804
     5   2.587890000  -1.062590000  -0.669290000   1.440000000   7.100827152
     6   3.764080000  -0.132120000   0.374830000   1.440000000   8.266216870
     7   2.459600000   1.984550000  -1.019280000   1.440000000   7.030749145
     8   4.510170000  -1.555570000  -4.211660000   1.800000000  20.269611310
     9   4.188800000  -0.798030000  -3.704438228   1.440000000   0.605785282
    10   4.161250000  -1.403560000  -5.096560000   1.440000000   4.866273324
    11   3.130820000   0.466430000  -5.169060000   1.800000000  12.439258795
    12   3.520250000   0.828300000  -5.971880000   1.440000000   9.845731794
    13   3.301770000   1.146260000  -4.507270000   1.440000000   4.778757417

 TOTAL NUMBER OF TESSERAE=     272
 SURFACE AREA=   138.49763998(A**2)    CAVITY VOLUME=    119.38073120 (A**3)
 STEP CPU TIME =     0.00 TOTAL CPU TIME =          3.3 (      0.1 MIN)
 TOTAL WALL CLOCK TIME=          3.3 SECONDS, CPU UTILIZATION IS   100.00%

          THE SOLUTE IS ENCLOSED IN ONE CAVITY
 DONE CHECKING SEPARATION.
 STEP CPU TIME =     0.00 TOTAL CPU TIME =          3.3 (      0.1 MIN)
 TOTAL WALL CLOCK TIME=          3.3 SECONDS, CPU UTILIZATION IS   100.00%
 
 ..... DONE SETTING UP PCM CALCULATION .....
 STEP CPU TIME =     0.00 TOTAL CPU TIME =          3.3 (      0.1 MIN)
 TOTAL WALL CLOCK TIME=          3.3 SECONDS, CPU UTILIZATION IS   100.00%

          --------------------------
               R-AM1 SCF CALCULATION
          --------------------------
     DENSITY MATRIX CONV=  1.00E-05

 ITER EX DEM     TOTAL ENERGY        E CHANGE  DENSITY CHANGE    DIIS ERROR
   1  0  0      -62.0866080956   -62.0866080956   0.001217440   0.000000000
   2  1  0      -62.0866113318    -0.0000032362   0.000510259   0.000000000
   3  2  0      -62.0866117750    -0.0000004432   0.000222427   0.000000000
   4  3  0      -62.0866118581    -0.0000000831   0.000099337   0.000000000
   5  4  0      -62.0866118758    -0.0000000177   0.000048400   0.000000000
   6  5  0      -62.0866118799    -0.0000000041   0.000024828   0.000000000
   7  6  0      -62.0866118809    -0.0000000010   0.000012880   0.000000000
   8  7  0      -62.0866118812    -0.0000000003   0.000006749   0.000000000

          -----------------
          DENSITY CONVERGED
          -----------------
     TIME TO FORM FOCK OPERATORS=       0.1 SECONDS (       0.0 SEC/ITER)
     TIME TO SOLVE SCF EQUATIONS=       0.0 SECONDS (       0.0 SEC/ITER)

 FINAL R-AM1 ENERGY IS      -62.0866118812 AFTER   8 ITERATIONS

 HEAT OF FORMATION IS      -182.98261 KCAL/MOL
 
  
   PCM ASC=      0.0394015475
   GCAVP  =      0.0000000000
   GDISP  =      0.0000000000
   GREP   =      0.0000000000
 ...... END OF RHF CALCULATION ......
 STEP CPU TIME =     0.08 TOTAL CPU TIME =          3.3 (      0.1 MIN)
 TOTAL WALL CLOCK TIME=          3.3 SECONDS, CPU UTILIZATION IS   100.00%
 
 .... DONE WITH PCM CONTRIBUTION TO GRADIENT ....
 STEP CPU TIME =     0.01 TOTAL CPU TIME =          3.3 (      0.1 MIN)
 TOTAL WALL CLOCK TIME=          3.3 SECONDS, CPU UTILIZATION IS   100.00%
 STEP CPU TIME =     0.00 TOTAL CPU TIME =          3.3 (      0.1 MIN)
 TOTAL WALL CLOCK TIME=          3.3 SECONDS, CPU UTILIZATION IS   100.00%

 UNITS ARE HARTREE/BOHR    E'X               E'Y               E'Z 
    1 CL              -0.000038892      -0.000028182       0.000008057
    2 C               -0.000049054      -0.000031753       0.000058291
    3 C               -0.000075265       0.000077801       0.000037907
    4 O                0.000083249      -0.000014333      -0.000169460
    5 H               -0.000012632      -0.000069689      -0.000028504
    6 H                0.000032164      -0.000006850       0.000036478
    7 H               -0.000028012       0.000011770       0.000007924
    8 O                0.000401685      -0.001217653      -0.001352535
    9 H               -0.000498047       0.001692969       0.001839849
   10 H                0.000205997      -0.000458042      -0.000399529
   11 O               -0.000152723      -0.000220255       0.000299967
   12 H                0.000125426       0.000183130      -0.000391065
   13 H                0.000006103       0.000081085       0.000052621
  $VIB   
          IVIB=   1 IATOM=   9 ICOORD=   3 E=      -62.0866118812
 -3.889239214E-05-2.818154225E-05 8.056502800E-06-4.905379478E-05-3.175341522E-05
  5.829054854E-05-7.526526561E-05 7.780141664E-05 3.790688374E-05 8.324939624E-05
 -1.433309077E-05-1.694602780E-04-1.263204808E-05-6.968853991E-05-2.850409189E-05
  3.216448365E-05-6.849651528E-06 3.647797044E-05-2.801195098E-05 1.177021235E-05
  7.924129418E-06 4.016848918E-04-1.217652663E-03-1.352535204E-03-4.980472117E-04
  1.692969465E-03 1.839848774E-03 2.059972648E-04-4.580423543E-04-3.995285106E-04
 -1.527226654E-04-2.202550908E-04 2.999671070E-04 1.254258961E-04 1.831299776E-04
 -3.910651087E-04 6.103396147E-06 8.108527637E-05 5.262127756E-05
 -3.558962497E-01 3.417076634E+00 7.229209235E-01
1   ATOM 10
                                        -------------------
   COORD  1                             NUCLEAR COORDINATES
                                        -------------------
     VIB  1

                       ATOM             X              Y              Z

                 1  CL               2.880774       0.521130       1.761640
                 2  C                5.308278      -0.128388      -0.392496
                 3  C                5.534573       1.894072      -2.363140
                 4  O                6.680673       1.514710      -4.359031
                 5  H                4.890403      -2.008004      -1.264775
                 6  H                7.113080      -0.249671       0.708326
                 7  H                4.647970       3.750256      -1.926160
                 8  O                8.522985      -2.939601      -7.958883
                 9  H                7.915684      -1.508058      -7.010373
                10  H                7.873622      -2.652344      -9.631102
                11  O                5.916392       0.881425      -9.768107
                12  H                6.652308       1.565260     -11.285217
                13  H                6.239441       2.166117      -8.517505

 MOPAC ONE- AND TWO-ELECTRON INTEGRALS REQUIRE      2933 WORDS.
 ...... END OF ONE- AND TWO-ELECTRON INTEGRALS......
 STEP CPU TIME =     0.00 TOTAL CPU TIME =          3.3 (      0.1 MIN)
 TOTAL WALL CLOCK TIME=          3.3 SECONDS, CPU UTILIZATION IS   100.00%
 ...... END OF ONE-ELECTRON INTEGRALS ......
 STEP CPU TIME =     0.00 TOTAL CPU TIME =          3.3 (      0.1 MIN)
 TOTAL WALL CLOCK TIME=          3.3 SECONDS, CPU UTILIZATION IS   100.00%

     ----------------------------
     INPUT FOR TESSERA DEFINITION
     ----------------------------
     NTSALL  =        60     MTHALL  =         4
     MTHAUT  =         0     AUTFRE  =    2.0000
     NTSFRZ  =        60     KEEPSM  =         0
     AREAKP  =   10.0000     BONDRY  =    1.0000
     AREATL  =    0.0100

     SPHERE     INITS       METHOD
          1        60       FIXPVA
          2        60       FIXPVA
          3        60       FIXPVA
          4        60       FIXPVA
          5        60       FIXPVA
          6        60       FIXPVA
          7        60       FIXPVA
          8        60       FIXPVA
          9        60       FIXPVA
         10        60       FIXPVA
         11        60       FIXPVA
         12        60       FIXPVA
         13        60       FIXPVA

     ------------------------------
      FIXPVA TESSELLATION FOR PCM
         PEIFENG SU AND HUI LI
     UNIVERSITY OF NEBRASKA-LINCOLN
     ------------------------------


     INPUT FOR CAVITY DEFINITION 
     ---------------------------
   ATOM               COORDINATES                RADIUS       EPS
      1      1.5244      0.2758      0.9322      1.8100     78.3900
      2      2.8090     -0.0679     -0.2077      1.7000     78.3900
      3      2.9288      1.0023     -1.2505      1.7000     78.3900
      4      3.5353      0.8015     -2.3067      1.5000     78.3900
      5      2.5879     -1.0626     -0.6693      1.2000     78.3900
      6      3.7641     -0.1321      0.3748      1.2000     78.3900
      7      2.4596      1.9845     -1.0193      1.2000     78.3900
      8      4.5102     -1.5556     -4.2117      1.5000     78.3900
      9      4.1888     -0.7980     -3.7097      1.2000     78.3900
     10      4.1665     -1.4036     -5.0966      1.2000     78.3900
     11      3.1308      0.4664     -5.1691      1.5000     78.3900
     12      3.5202      0.8283     -5.9719      1.2000     78.3900
     13      3.3018      1.1463     -4.5073      1.2000     78.3900

 MEMORY USED TO GENERATE CAVITY=    262582


 TOTAL NUMBER OF SPHERES=    13
 SPHERE           CENTER  (X,Y,Z) (A)               RADIUS (A)      AREA(A*A)
     1   1.524440000   0.275770000   0.932220000   2.172000000  38.490629521
     2   2.809020000  -0.067940000  -0.207700000   2.040000000   3.657223925
     3   2.928770000   1.002300000  -1.250520000   2.040000000  12.181771764
     4   3.535260000   0.801550000  -2.306700000   1.800000000   8.978195913
     5   2.587890000  -1.062590000  -0.669290000   1.440000000   7.103966586
     6   3.764080000  -0.132120000   0.374830000   1.440000000   8.266216870
     7   2.459600000   1.984550000  -1.019280000   1.440000000   7.030749145
     8   4.510170000  -1.555570000  -4.211660000   1.800000000  20.256112931
     9   4.188800000  -0.798030000  -3.709730000   1.440000000   0.594045348
    10   4.166541772  -1.403560000  -5.096560000   1.440000000   4.875780614
    11   3.130820000   0.466430000  -5.169060000   1.800000000  12.439258795
    12   3.520250000   0.828300000  -5.971880000   1.440000000   9.842713576
    13   3.301770000   1.146260000  -4.507270000   1.440000000   4.778707310

 TOTAL NUMBER OF TESSERAE=     272
 SURFACE AREA=   138.49537230(A**2)    CAVITY VOLUME=    119.39966028 (A**3)
 STEP CPU TIME =     0.00 TOTAL CPU TIME =          3.3 (      0.1 MIN)
 TOTAL WALL CLOCK TIME=          3.3 SECONDS, CPU UTILIZATION IS   100.00%

          THE SOLUTE IS ENCLOSED IN ONE CAVITY
 DONE CHECKING SEPARATION.
 STEP CPU TIME =     0.00 TOTAL CPU TIME =          3.3 (      0.1 MIN)
 TOTAL WALL CLOCK TIME=          3.3 SECONDS, CPU UTILIZATION IS   100.00%
 
 ..... DONE SETTING UP PCM CALCULATION .....
 STEP CPU TIME =     0.00 TOTAL CPU TIME =          3.3 (      0.1 MIN)
 TOTAL WALL CLOCK TIME=          3.3 SECONDS, CPU UTILIZATION IS   100.00%

          --------------------------
               R-AM1 SCF CALCULATION
          --------------------------
     DENSITY MATRIX CONV=  1.00E-05

 ITER EX DEM     TOTAL ENERGY        E CHANGE  DENSITY CHANGE    DIIS ERROR
   1  0  0      -62.0866115027   -62.0866115027   0.001978757   0.000000000
   2  1  0      -62.0866159500    -0.0000044473   0.001034520   0.000000000
   3  2  0      -62.0866170749    -0.0000011249   0.000547612   0.000000000
   4  3  0      -62.0866173891    -0.0000003143   0.000292199   0.000000000
   5  4  0      -62.0866174800    -0.0000000908   0.000156815   0.000000000
   6  5  0      -62.0866175065    -0.0000000266   0.000084536   0.000000000
   7  6  0      -62.0866175145    -0.0000000080   0.000045736   0.000000000
   8  7  0      -62.0866175169    -0.0000000024   0.000024818   0.000000000
   9  8  0      -62.0866175176    -0.0000000007   0.000013500   0.000000000
  10  9  0      -62.0866175178    -0.0000000002   0.000007358   0.000000000

          -----------------
          DENSITY CONVERGED
          -----------------
     TIME TO FORM FOCK OPERATORS=       0.1 SECONDS (       0.0 SEC/ITER)
     TIME TO SOLVE SCF EQUATIONS=       0.0 SECONDS (       0.0 SEC/ITER)

 FINAL R-AM1 ENERGY IS      -62.0866175178 AFTER  10 ITERATIONS

 HEAT OF FORMATION IS      -182.98615 KCAL/MOL
 
  
   PCM ASC=      0.0394019400
   GCAVP  =      0.0000000000
   GDISP  =      0.0000000000
   GREP   =      0.0000000000
 ...... END OF RHF CALCULATION ......
 STEP CPU TIME =     0.12 TOTAL CPU TIME =          3.5 (      0.1 MIN)
 TOTAL WALL CLOCK TIME=          3.5 SECONDS, CPU UTILIZATION IS   100.00%
 
 .... DONE WITH PCM CONTRIBUTION TO GRADIENT ....
 STEP CPU TIME =     0.00 TOTAL CPU TIME =          3.5 (      0.1 MIN)
 TOTAL WALL CLOCK TIME=          3.5 SECONDS, CPU UTILIZATION IS   100.00%
 STEP CPU TIME =     0.00 TOTAL CPU TIME =          3.5 (      0.1 MIN)
 TOTAL WALL CLOCK TIME=          3.5 SECONDS, CPU UTILIZATION IS   100.00%

 UNITS ARE HARTREE/BOHR    E'X               E'Y               E'Z 
    1 CL              -0.000038372      -0.000028115       0.000007576
    2 C               -0.000050699      -0.000031293       0.000057999
    3 C               -0.000079992       0.000074263       0.000050081
    4 O                0.000083329       0.000007454      -0.000152307
    5 H               -0.000011888      -0.000070791      -0.000029795
    6 H                0.000032909      -0.000006816       0.000036453
    7 H               -0.000026553       0.000012835       0.000006458
    8 O               -0.000708073       0.000498607      -0.001485412
    9 H                0.000125974      -0.000056324       0.000190021
   10 H                0.000693341      -0.000436744       0.001329278
   11 O               -0.000163862      -0.000210537       0.000323629
   12 H                0.000127393       0.000182835      -0.000390064
   13 H                0.000016493       0.000064624       0.000056082
  $VIB   
          IVIB=   1 IATOM=  10 ICOORD=   1 E=      -62.0866175178
 -3.837186953E-05-2.811450954E-05 7.575817524E-06-5.069916197E-05-3.129251906E-05
  5.799896840E-05-7.999239345E-05 7.426332509E-05 5.008130768E-05 8.332867789E-05
  7.453805568E-06-1.523069470E-04-1.188771991E-05-7.079054402E-05-2.979462616E-05
  3.290944854E-05-6.816119917E-06 3.645252136E-05-2.655277180E-05 1.283512600E-05
  6.458438271E-06-7.080729666E-04 4.986068128E-04-1.485411592E-03 1.259740738E-04
 -5.632405597E-05 1.900212752E-04 6.933406215E-04-4.367437185E-04 1.329277764E-03
 -1.638624674E-04-2.105368157E-04 3.236293992E-04 1.273932301E-04 1.828349340E-04
 -3.900640165E-04 1.649329881E-05 6.462427933E-05 5.608168927E-05
 -3.486307566E-01 3.419601942E+00 7.138800173E-01
1   ATOM 10
                                        -------------------
   COORD  2                             NUCLEAR COORDINATES
                                        -------------------
     VIB  1

                       ATOM             X              Y              Z

                 1  CL               2.880774       0.521130       1.761640
                 2  C                5.308278      -0.128388      -0.392496
                 3  C                5.534573       1.894072      -2.363140
                 4  O                6.680673       1.514710      -4.359031
                 5  H                4.890403      -2.008004      -1.264775
                 6  H                7.113080      -0.249671       0.708326
                 7  H                4.647970       3.750256      -1.926160
                 8  O                8.522985      -2.939601      -7.958883
                 9  H                7.915684      -1.508058      -7.010373
                10  H                7.863622      -2.642344      -9.631102
                11  O                5.916392       0.881425      -9.768107
                12  H                6.652308       1.565260     -11.285217
                13  H                6.239441       2.166117      -8.517505

 MOPAC ONE- AND TWO-ELECTRON INTEGRALS REQUIRE      2933 WORDS.
 ...... END OF ONE- AND TWO-ELECTRON INTEGRALS......
 STEP CPU TIME =     0.00 TOTAL CPU TIME =          3.5 (      0.1 MIN)
 TOTAL WALL CLOCK TIME=          3.5 SECONDS, CPU UTILIZATION IS   100.00%
 ...... END OF ONE-ELECTRON INTEGRALS ......
 STEP CPU TIME =     0.00 TOTAL CPU TIME =          3.5 (      0.1 MIN)
 TOTAL WALL CLOCK TIME=          3.5 SECONDS, CPU UTILIZATION IS   100.00%

     ----------------------------
     INPUT FOR TESSERA DEFINITION
     ----------------------------
     NTSALL  =        60     MTHALL  =         4
     MTHAUT  =         0     AUTFRE  =    2.0000
     NTSFRZ  =        60     KEEPSM  =         0
     AREAKP  =   10.0000     BONDRY  =    1.0000
     AREATL  =    0.0100

     SPHERE     INITS       METHOD
          1        60       FIXPVA
          2        60       FIXPVA
          3        60       FIXPVA
          4        60       FIXPVA
          5        60       FIXPVA
          6        60       FIXPVA
          7        60       FIXPVA
          8        60       FIXPVA
          9        60       FIXPVA
         10        60       FIXPVA
         11        60       FIXPVA
         12        60       FIXPVA
         13        60       FIXPVA

     ------------------------------
      FIXPVA TESSELLATION FOR PCM
         PEIFENG SU AND HUI LI
     UNIVERSITY OF NEBRASKA-LINCOLN
     ------------------------------


     INPUT FOR CAVITY DEFINITION 
     ---------------------------
   ATOM               COORDINATES                RADIUS       EPS
      1      1.5244      0.2758      0.9322      1.8100     78.3900
      2      2.8090     -0.0679     -0.2077      1.7000     78.3900
      3      2.9288      1.0023     -1.2505      1.7000     78.3900
      4      3.5353      0.8015     -2.3067      1.5000     78.3900
      5      2.5879     -1.0626     -0.6693      1.2000     78.3900
      6      3.7641     -0.1321      0.3748      1.2000     78.3900
      7      2.4596      1.9845     -1.0193      1.2000     78.3900
      8      4.5102     -1.5556     -4.2117      1.5000     78.3900
      9      4.1888     -0.7980     -3.7097      1.2000     78.3900
     10      4.1612     -1.3983     -5.0966      1.2000     78.3900
     11      3.1308      0.4664     -5.1691      1.5000     78.3900
     12      3.5202      0.8283     -5.9719      1.2000     78.3900
     13      3.3018      1.1463     -4.5073      1.2000     78.3900

 MEMORY USED TO GENERATE CAVITY=    262582


 TOTAL NUMBER OF SPHERES=    13
 SPHERE           CENTER  (X,Y,Z) (A)               RADIUS (A)      AREA(A*A)
     1   1.524440000   0.275770000   0.932220000   2.172000000  38.490629521
     2   2.809020000  -0.067940000  -0.207700000   2.040000000   3.657223925
     3   2.928770000   1.002300000  -1.250520000   2.040000000  12.181771764
     4   3.535260000   0.801550000  -2.306700000   1.800000000   8.978195913
     5   2.587890000  -1.062590000  -0.669290000   1.440000000   7.103966586
     6   3.764080000  -0.132120000   0.374830000   1.440000000   8.266216870
     7   2.459600000   1.984550000  -1.019280000   1.440000000   7.030749145
     8   4.510170000  -1.555570000  -4.211660000   1.800000000  20.263507751
     9   4.188800000  -0.798030000  -3.709730000   1.440000000   0.593946960
    10   4.161250000  -1.398268228  -5.096560000   1.440000000   4.839203823
    11   3.130820000   0.466430000  -5.169060000   1.800000000  12.439258795
    12   3.520250000   0.828300000  -5.971880000   1.440000000   9.843686658
    13   3.301770000   1.146260000  -4.507270000   1.440000000   4.778707291

 TOTAL NUMBER OF TESSERAE=     272
 SURFACE AREA=   138.46706500(A**2)    CAVITY VOLUME=    119.33312919 (A**3)
 STEP CPU TIME =     0.00 TOTAL CPU TIME =          3.5 (      0.1 MIN)
 TOTAL WALL CLOCK TIME=          3.5 SECONDS, CPU UTILIZATION IS   100.00%

          THE SOLUTE IS ENCLOSED IN ONE CAVITY
 DONE CHECKING SEPARATION.
 STEP CPU TIME =     0.00 TOTAL CPU TIME =          3.5 (      0.1 MIN)
 TOTAL WALL CLOCK TIME=          3.5 SECONDS, CPU UTILIZATION IS   100.00%
 
 ..... DONE SETTING UP PCM CALCULATION .....
 STEP CPU TIME =     0.00 TOTAL CPU TIME =          3.5 (      0.1 MIN)
 TOTAL WALL CLOCK TIME=          3.5 SECONDS, CPU UTILIZATION IS   100.00%

          --------------------------
               R-AM1 SCF CALCULATION
          --------------------------
     DENSITY MATRIX CONV=  1.00E-05

 ITER EX DEM     TOTAL ENERGY        E CHANGE  DENSITY CHANGE    DIIS ERROR
   1  0  0      -62.0866128264   -62.0866128264   0.001857178   0.000000000
   2  1  0      -62.0866169006    -0.0000040741   0.000869637   0.000000000
   3  2  0      -62.0866177575    -0.0000008569   0.000413909   0.000000000
   4  3  0      -62.0866179560    -0.0000001985   0.000200078   0.000000000
   5  4  0      -62.0866180052    -0.0000000492   0.000098168   0.000000000
   6  5  0      -62.0866180181    -0.0000000129   0.000048860   0.000000000
   7  6  0      -62.0866180216    -0.0000000035   0.000024649   0.000000000
   8  7  0      -62.0866180226    -0.0000000010   0.000012658   0.000000000
   9  8  0      -62.0866180229    -0.0000000003   0.000007162   0.000000000
  10  9  0      -62.0866180230    -0.0000000000   0.000004026   0.000000000

          -----------------
          DENSITY CONVERGED
          -----------------
     TIME TO FORM FOCK OPERATORS=       0.1 SECONDS (       0.0 SEC/ITER)
     TIME TO SOLVE SCF EQUATIONS=       0.0 SECONDS (       0.0 SEC/ITER)

 FINAL R-AM1 ENERGY IS      -62.0866180230 AFTER  10 ITERATIONS

 HEAT OF FORMATION IS      -182.98647 KCAL/MOL
 
  
   PCM ASC=      0.0394081607
   GCAVP  =      0.0000000000
   GDISP  =      0.0000000000
   GREP   =      0.0000000000
 ...... END OF RHF CALCULATION ......
 STEP CPU TIME =     0.14 TOTAL CPU TIME =          3.6 (      0.1 MIN)
 TOTAL WALL CLOCK TIME=          3.6 SECONDS, CPU UTILIZATION IS   100.00%
 
 .... DONE WITH PCM CONTRIBUTION TO GRADIENT ....
 STEP CPU TIME =     0.00 TOTAL CPU TIME =          3.6 (      0.1 MIN)
 TOTAL WALL CLOCK TIME=          3.6 SECONDS, CPU UTILIZATION IS   100.00%
 STEP CPU TIME =     0.00 TOTAL CPU TIME =          3.6 (      0.1 MIN)
 TOTAL WALL CLOCK TIME=          3.6 SECONDS, CPU UTILIZATION IS   100.00%

 UNITS ARE HARTREE/BOHR    E'X               E'Y               E'Z 
    1 CL              -0.000038391      -0.000028130       0.000007585
    2 C               -0.000050893      -0.000031308       0.000058004
    3 C               -0.000079762       0.000073585       0.000050029
    4 O                0.000084226       0.000006780      -0.000152258
    5 H               -0.000011917      -0.000070752      -0.000029705
    6 H                0.000032925      -0.000006807       0.000036445
    7 H               -0.000026401       0.000012834       0.000006407
    8 O                0.000638069      -0.000615660       0.000831750
    9 H               -0.000176521       0.000130537      -0.000460232
   10 H               -0.000421158       0.000612749      -0.000358193
   11 O               -0.000097275      -0.000324179       0.000342851
   12 H                0.000132330       0.000172515      -0.000378475
   13 H                0.000014768       0.000067834       0.000045793
  $VIB   
          IVIB=   1 IATOM=  10 ICOORD=   2 E=      -62.0866180230
 -3.839110297E-05-2.813030252E-05 7.585113648E-06-5.089345233E-05-3.130786177E-05
  5.800387089E-05-7.976209244E-05 7.358529253E-05 5.002893182E-05 8.422600591E-05
  6.780356667E-06-1.522583336E-04-1.191686119E-05-7.075179948E-05-2.970511970E-05
  3.292506089E-05-6.806542463E-06 3.644508497E-05-2.640138984E-05 1.283434330E-05
  6.406549528E-06 6.380690680E-04-6.156595154E-04 8.317498683E-04-1.765207690E-04
  1.305368389E-04-4.602321636E-04-4.211578142E-04 6.127486105E-04-3.581926778E-04
 -9.727498530E-05-3.241788771E-04 3.428505599E-04 1.323304133E-04 1.725151157E-04
 -3.784746842E-04 1.476791925E-05 6.783434120E-05 4.579299982E-05
 -3.543429045E-01 3.425335216E+00 7.183533043E-01
1   ATOM 10
                                        -------------------
   COORD  3                             NUCLEAR COORDINATES
                                        -------------------
     VIB  1

                       ATOM             X              Y              Z

                 1  CL               2.880774       0.521130       1.761640
                 2  C                5.308278      -0.128388      -0.392496
                 3  C                5.534573       1.894072      -2.363140
                 4  O                6.680673       1.514710      -4.359031
                 5  H                4.890403      -2.008004      -1.264775
                 6  H                7.113080      -0.249671       0.708326
                 7  H                4.647970       3.750256      -1.926160
                 8  O                8.522985      -2.939601      -7.958883
                 9  H                7.915684      -1.508058      -7.010373
                10  H                7.863622      -2.652344      -9.621102
                11  O                5.916392       0.881425      -9.768107
                12  H                6.652308       1.565260     -11.285217
                13  H                6.239441       2.166117      -8.517505

 MOPAC ONE- AND TWO-ELECTRON INTEGRALS REQUIRE      2933 WORDS.
 ...... END OF ONE- AND TWO-ELECTRON INTEGRALS......
 STEP CPU TIME =     0.00 TOTAL CPU TIME =          3.6 (      0.1 MIN)
 TOTAL WALL CLOCK TIME=          3.6 SECONDS, CPU UTILIZATION IS   100.00%
 ...... END OF ONE-ELECTRON INTEGRALS ......
 STEP CPU TIME =     0.00 TOTAL CPU TIME =          3.6 (      0.1 MIN)
 TOTAL WALL CLOCK TIME=          3.6 SECONDS, CPU UTILIZATION IS   100.00%

     ----------------------------
     INPUT FOR TESSERA DEFINITION
     ----------------------------
     NTSALL  =        60     MTHALL  =         4
     MTHAUT  =         0     AUTFRE  =    2.0000
     NTSFRZ  =        60     KEEPSM  =         0
     AREAKP  =   10.0000     BONDRY  =    1.0000
     AREATL  =    0.0100

     SPHERE     INITS       METHOD
          1        60       FIXPVA
          2        60       FIXPVA
          3        60       FIXPVA
          4        60       FIXPVA
          5        60       FIXPVA
          6        60       FIXPVA
          7        60       FIXPVA
          8        60       FIXPVA
          9        60       FIXPVA
         10        60       FIXPVA
         11        60       FIXPVA
         12        60       FIXPVA
         13        60       FIXPVA

     ------------------------------
      FIXPVA TESSELLATION FOR PCM
         PEIFENG SU AND HUI LI
     UNIVERSITY OF NEBRASKA-LINCOLN
     ------------------------------


     INPUT FOR CAVITY DEFINITION 
     ---------------------------
   ATOM               COORDINATES                RADIUS       EPS
      1      1.5244      0.2758      0.9322      1.8100     78.3900
      2      2.8090     -0.0679     -0.2077      1.7000     78.3900
      3      2.9288      1.0023     -1.2505      1.7000     78.3900
      4      3.5353      0.8015     -2.3067      1.5000     78.3900
      5      2.5879     -1.0626     -0.6693      1.2000     78.3900
      6      3.7641     -0.1321      0.3748      1.2000     78.3900
      7      2.4596      1.9845     -1.0193      1.2000     78.3900
      8      4.5102     -1.5556     -4.2117      1.5000     78.3900
      9      4.1888     -0.7980     -3.7097      1.2000     78.3900
     10      4.1612     -1.4036     -5.0913      1.2000     78.3900
     11      3.1308      0.4664     -5.1691      1.5000     78.3900
     12      3.5202      0.8283     -5.9719      1.2000     78.3900
     13      3.3018      1.1463     -4.5073      1.2000     78.3900

 MEMORY USED TO GENERATE CAVITY=    262582


 TOTAL NUMBER OF SPHERES=    13
 SPHERE           CENTER  (X,Y,Z) (A)               RADIUS (A)      AREA(A*A)
     1   1.524440000   0.275770000   0.932220000   2.172000000  38.490629521
     2   2.809020000  -0.067940000  -0.207700000   2.040000000   3.657223925
     3   2.928770000   1.002300000  -1.250520000   2.040000000  12.181771764
     4   3.535260000   0.801550000  -2.306700000   1.800000000   8.978195913
     5   2.587890000  -1.062590000  -0.669290000   1.440000000   7.103966586
     6   3.764080000  -0.132120000   0.374830000   1.440000000   8.266216870
     7   2.459600000   1.984550000  -1.019280000   1.440000000   7.030749145
     8   4.510170000  -1.555570000  -4.211660000   1.800000000  20.276414351
     9   4.188800000  -0.798030000  -3.709730000   1.440000000   0.593839713
    10   4.161250000  -1.403560000  -5.091268228   1.440000000   4.814872440
    11   3.130820000   0.466430000  -5.169060000   1.800000000  12.439258795
    12   3.520250000   0.828300000  -5.971880000   1.440000000   9.850109562
    13   3.301770000   1.146260000  -4.507270000   1.440000000   4.778707312

 TOTAL NUMBER OF TESSERAE=     272
 SURFACE AREA=   138.46195590(A**2)    CAVITY VOLUME=    119.30939186 (A**3)
 STEP CPU TIME =     0.00 TOTAL CPU TIME =          3.6 (      0.1 MIN)
 TOTAL WALL CLOCK TIME=          3.6 SECONDS, CPU UTILIZATION IS   100.00%

          THE SOLUTE IS ENCLOSED IN ONE CAVITY
 DONE CHECKING SEPARATION.
 STEP CPU TIME =     0.00 TOTAL CPU TIME =          3.6 (      0.1 MIN)
 TOTAL WALL CLOCK TIME=          3.6 SECONDS, CPU UTILIZATION IS   100.00%
 
 ..... DONE SETTING UP PCM CALCULATION .....
 STEP CPU TIME =     0.00 TOTAL CPU TIME =          3.6 (      0.1 MIN)
 TOTAL WALL CLOCK TIME=          3.6 SECONDS, CPU UTILIZATION IS   100.00%

          --------------------------
               R-AM1 SCF CALCULATION
          --------------------------
     DENSITY MATRIX CONV=  1.00E-05

 ITER EX DEM     TOTAL ENERGY        E CHANGE  DENSITY CHANGE    DIIS ERROR
   1  0  0      -62.0865981018   -62.0865981018   0.001193869   0.000000000
   2  1  0      -62.0866013151    -0.0000032133   0.000288022   0.000000000
   3  2  0      -62.0866015369    -0.0000002218   0.000156095   0.000000000
   4  3  0      -62.0866015708    -0.0000000339   0.000083619   0.000000000
   5  4  0      -62.0866015792    -0.0000000084   0.000044792   0.000000000
   6  5  0      -62.0866015815    -0.0000000023   0.000024074   0.000000000
   7  6  0      -62.0866015822    -0.0000000007   0.000012990   0.000000000
   8  7  0      -62.0866015823    -0.0000000002   0.000007035   0.000000000

          -----------------
          DENSITY CONVERGED
          -----------------
     TIME TO FORM FOCK OPERATORS=       0.1 SECONDS (       0.0 SEC/ITER)
     TIME TO SOLVE SCF EQUATIONS=       0.0 SECONDS (       0.0 SEC/ITER)

 FINAL R-AM1 ENERGY IS      -62.0866015823 AFTER   8 ITERATIONS

 HEAT OF FORMATION IS      -182.97615 KCAL/MOL
 
  
   PCM ASC=      0.0394088531
   GCAVP  =      0.0000000000
   GDISP  =      0.0000000000
   GREP   =      0.0000000000
 ...... END OF RHF CALCULATION ......
 STEP CPU TIME =     0.11 TOTAL CPU TIME =          3.7 (      0.1 MIN)
 TOTAL WALL CLOCK TIME=          3.7 SECONDS, CPU UTILIZATION IS   100.00%
 
 .... DONE WITH PCM CONTRIBUTION TO GRADIENT ....
 STEP CPU TIME =     0.01 TOTAL CPU TIME =          3.7 (      0.1 MIN)
 TOTAL WALL CLOCK TIME=          3.7 SECONDS, CPU UTILIZATION IS   100.00%
 STEP CPU TIME =     0.00 TOTAL CPU TIME =          3.7 (      0.1 MIN)
 TOTAL WALL CLOCK TIME=          3.7 SECONDS, CPU UTILIZATION IS   100.00%

 UNITS ARE HARTREE/BOHR    E'X               E'Y               E'Z 
    1 CL              -0.000038492      -0.000028187       0.000007680
    2 C               -0.000050638      -0.000031429       0.000058128
    3 C               -0.000078801       0.000073854       0.000047527
    4 O                0.000082842       0.000010229      -0.000148158
    5 H               -0.000011931      -0.000070461      -0.000029533
    6 H                0.000032754      -0.000006822       0.000036437
    7 H               -0.000026685       0.000012635       0.000006699
    8 O               -0.001248798       0.000428285      -0.003520385
    9 H               -0.000063892      -0.000036119      -0.000380859
   10 H                0.001389643      -0.000338622       0.003934021
   11 O               -0.000130664      -0.000263665       0.000322470
   12 H                0.000126055       0.000187676      -0.000389476
   13 H                0.000018608       0.000062626       0.000055449
  $VIB   
          IVIB=   1 IATOM=  10 ICOORD=   3 E=      -62.0866015823
 -3.849176584E-05-2.818718182E-05 7.680197106E-06-5.063813135E-05-3.142909442E-05
  5.812786633E-05-7.880093926E-05 7.385387813E-05 4.752676042E-05 8.284156989E-05
  1.022881780E-05-1.481576249E-04-1.193122425E-05-7.046101216E-05-2.953342788E-05
  3.275403062E-05-6.822280871E-06 3.643697695E-05-2.668501465E-05 1.263539532E-05
  6.699105216E-06-1.248798486E-03 4.282849628E-04-3.520385246E-03-6.389224566E-05
 -3.611858810E-05-3.808585228E-04 1.389643352E-03-3.386219133E-04 3.934020691E-03
 -1.306636618E-04-2.636645541E-04 3.224700766E-04 1.260546651E-04 1.876758120E-04
 -3.894762595E-04 1.860785172E-05 6.262575855E-05 5.544940757E-05
 -3.578463689E-01 3.418765257E+00 7.198888098E-01
1   ATOM 11
                                        -------------------
   COORD  1                             NUCLEAR COORDINATES
                                        -------------------
     VIB  1

                       ATOM             X              Y              Z

                 1  CL               2.880774       0.521130       1.761640
                 2  C                5.308278      -0.128388      -0.392496
                 3  C                5.534573       1.894072      -2.363140
                 4  O                6.680673       1.514710      -4.359031
                 5  H                4.890403      -2.008004      -1.264775
                 6  H                7.113080      -0.249671       0.708326
                 7  H                4.647970       3.750256      -1.926160
                 8  O                8.522985      -2.939601      -7.958883
                 9  H                7.915684      -1.508058      -7.010373
                10  H                7.863622      -2.652344      -9.631102
                11  O                5.926392       0.881425      -9.768107
                12  H                6.652308       1.565260     -11.285217
                13  H                6.239441       2.166117      -8.517505

 MOPAC ONE- AND TWO-ELECTRON INTEGRALS REQUIRE      2933 WORDS.
 ...... END OF ONE- AND TWO-ELECTRON INTEGRALS......
 STEP CPU TIME =     0.00 TOTAL CPU TIME =          3.7 (      0.1 MIN)
 TOTAL WALL CLOCK TIME=          3.7 SECONDS, CPU UTILIZATION IS   100.00%
 ...... END OF ONE-ELECTRON INTEGRALS ......
 STEP CPU TIME =     0.00 TOTAL CPU TIME =          3.7 (      0.1 MIN)
 TOTAL WALL CLOCK TIME=          3.7 SECONDS, CPU UTILIZATION IS   100.00%

     ----------------------------
     INPUT FOR TESSERA DEFINITION
     ----------------------------
     NTSALL  =        60     MTHALL  =         4
     MTHAUT  =         0     AUTFRE  =    2.0000
     NTSFRZ  =        60     KEEPSM  =         0
     AREAKP  =   10.0000     BONDRY  =    1.0000
     AREATL  =    0.0100

     SPHERE     INITS       METHOD
          1        60       FIXPVA
          2        60       FIXPVA
          3        60       FIXPVA
          4        60       FIXPVA
          5        60       FIXPVA
          6        60       FIXPVA
          7        60       FIXPVA
          8        60       FIXPVA
          9        60       FIXPVA
         10        60       FIXPVA
         11        60       FIXPVA
         12        60       FIXPVA
         13        60       FIXPVA

     ------------------------------
      FIXPVA TESSELLATION FOR PCM
         PEIFENG SU AND HUI LI
     UNIVERSITY OF NEBRASKA-LINCOLN
     ------------------------------


     INPUT FOR CAVITY DEFINITION 
     ---------------------------
   ATOM               COORDINATES                RADIUS       EPS
      1      1.5244      0.2758      0.9322      1.8100     78.3900
      2      2.8090     -0.0679     -0.2077      1.7000     78.3900
      3      2.9288      1.0023     -1.2505      1.7000     78.3900
      4      3.5353      0.8015     -2.3067      1.5000     78.3900
      5      2.5879     -1.0626     -0.6693      1.2000     78.3900
      6      3.7641     -0.1321      0.3748      1.2000     78.3900
      7      2.4596      1.9845     -1.0193      1.2000     78.3900
      8      4.5102     -1.5556     -4.2117      1.5000     78.3900
      9      4.1888     -0.7980     -3.7097      1.2000     78.3900
     10      4.1612     -1.4036     -5.0966      1.2000     78.3900
     11      3.1361      0.4664     -5.1691      1.5000     78.3900
     12      3.5202      0.8283     -5.9719      1.2000     78.3900
     13      3.3018      1.1463     -4.5073      1.2000     78.3900

 MEMORY USED TO GENERATE CAVITY=    262582


 TOTAL NUMBER OF SPHERES=    13
 SPHERE           CENTER  (X,Y,Z) (A)               RADIUS (A)      AREA(A*A)
     1   1.524440000   0.275770000   0.932220000   2.172000000  38.490629521
     2   2.809020000  -0.067940000  -0.207700000   2.040000000   3.657223925
     3   2.928770000   1.002300000  -1.250520000   2.040000000  12.181771764
     4   3.535260000   0.801550000  -2.306700000   1.800000000   8.985138537
     5   2.587890000  -1.062590000  -0.669290000   1.440000000   7.103966586
     6   3.764080000  -0.132120000   0.374830000   1.440000000   8.266216870
     7   2.459600000   1.984550000  -1.019280000   1.440000000   7.030749145
     8   4.510170000  -1.555570000  -4.211660000   1.800000000  20.269614417
     9   4.188800000  -0.798030000  -3.709730000   1.440000000   0.593636681
    10   4.161250000  -1.403560000  -5.096560000   1.440000000   4.867341390
    11   3.136111772   0.466430000  -5.169060000   1.800000000  12.393040057
    12   3.520250000   0.828300000  -5.971880000   1.440000000   9.867130719
    13   3.301770000   1.146260000  -4.507270000   1.440000000   4.795702412

 TOTAL NUMBER OF TESSERAE=     272
 SURFACE AREA=   138.50216202(A**2)    CAVITY VOLUME=    119.36795472 (A**3)
 STEP CPU TIME =     0.00 TOTAL CPU TIME =          3.7 (      0.1 MIN)
 TOTAL WALL CLOCK TIME=          3.7 SECONDS, CPU UTILIZATION IS   100.00%

          THE SOLUTE IS ENCLOSED IN ONE CAVITY
 DONE CHECKING SEPARATION.
 STEP CPU TIME =     0.00 TOTAL CPU TIME =          3.7 (      0.1 MIN)
 TOTAL WALL CLOCK TIME=          3.7 SECONDS, CPU UTILIZATION IS   100.00%
 
 ..... DONE SETTING UP PCM CALCULATION .....
 STEP CPU TIME =     0.00 TOTAL CPU TIME =          3.7 (      0.1 MIN)
 TOTAL WALL CLOCK TIME=          3.7 SECONDS, CPU UTILIZATION IS   100.00%

          --------------------------
               R-AM1 SCF CALCULATION
          --------------------------
     DENSITY MATRIX CONV=  1.00E-05

 ITER EX DEM     TOTAL ENERGY        E CHANGE  DENSITY CHANGE    DIIS ERROR
   1  0  0      -62.0866044654   -62.0866044654   0.002126259   0.000000000
   2  1  0      -62.0866132189    -0.0000087535   0.001149041   0.000000000
   3  2  0      -62.0866156884    -0.0000024696   0.000626869   0.000000000
   4  3  0      -62.0866164315    -0.0000007430   0.000343809   0.000000000
   5  4  0      -62.0866166586    -0.0000002271   0.000189220   0.000000000
   6  5  0      -62.0866167284    -0.0000000698   0.000104406   0.000000000
   7  6  0      -62.0866167500    -0.0000000216   0.000057723   0.000000000
   8  7  0      -62.0866167567    -0.0000000067   0.000031964   0.000000000
   9  8  0      -62.0866167588    -0.0000000021   0.000017797   0.000000000
  10  9  0      -62.0866167594    -0.0000000006   0.000009916   0.000000000
  11 10  0      -62.0866167596    -0.0000000002   0.000005526   0.000000000

          -----------------
          DENSITY CONVERGED
          -----------------
     TIME TO FORM FOCK OPERATORS=       0.1 SECONDS (       0.0 SEC/ITER)
     TIME TO SOLVE SCF EQUATIONS=       0.0 SECONDS (       0.0 SEC/ITER)

 FINAL R-AM1 ENERGY IS      -62.0866167596 AFTER  11 ITERATIONS

 HEAT OF FORMATION IS      -182.98567 KCAL/MOL
 
  
   PCM ASC=      0.0393966693
   GCAVP  =      0.0000000000
   GDISP  =      0.0000000000
   GREP   =      0.0000000000
 ...... END OF RHF CALCULATION ......
 STEP CPU TIME =     0.11 TOTAL CPU TIME =          3.8 (      0.1 MIN)
 TOTAL WALL CLOCK TIME=          3.8 SECONDS, CPU UTILIZATION IS   100.00%
 
 .... DONE WITH PCM CONTRIBUTION TO GRADIENT ....
 STEP CPU TIME =     0.02 TOTAL CPU TIME =          3.9 (      0.1 MIN)
 TOTAL WALL CLOCK TIME=          3.9 SECONDS, CPU UTILIZATION IS   100.00%
 STEP CPU TIME =     0.00 TOTAL CPU TIME =          3.9 (      0.1 MIN)
 TOTAL WALL CLOCK TIME=          3.9 SECONDS, CPU UTILIZATION IS   100.00%

 UNITS ARE HARTREE/BOHR    E'X               E'Y               E'Z 
    1 CL              -0.000038066      -0.000028106       0.000007160
    2 C               -0.000051261      -0.000031138       0.000057735
    3 C               -0.000081064       0.000073633       0.000052885
    4 O                0.000085792       0.000004426      -0.000160809
    5 H               -0.000011733      -0.000070956      -0.000029800
    6 H                0.000033207      -0.000006798       0.000036434
    7 H               -0.000026238       0.000013202       0.000006124
    8 O                0.000033493       0.000019479       0.000013205
    9 H               -0.000003844       0.000035275      -0.000004328
   10 H                0.000002255       0.000051336      -0.000003170
   11 O                0.001009323       0.001363284      -0.000636027
   12 H               -0.000667508      -0.000766239       0.000856685
   13 H               -0.000284357      -0.000657398      -0.000196096
  $VIB   
          IVIB=   1 IATOM=  11 ICOORD=   1 E=      -62.0866167596
 -3.806554487E-05-2.810608869E-05 7.159770002E-06-5.126139725E-05-3.113752879E-05
  5.773496553E-05-8.106356624E-05 7.363284953E-05 5.288515954E-05 8.579195399E-05
  4.426096098E-06-1.608085267E-04-1.173341559E-05-7.095606445E-05-2.979996233E-05
  3.320656617E-05-6.798128541E-06 3.643446858E-05-2.623795734E-05 1.320193005E-05
  6.124359154E-06 3.349284743E-05 1.947943081E-05 1.320505992E-05-3.843589768E-06
  3.527480243E-05-4.327980717E-06 2.255381709E-06 5.133626781E-05-3.169537753E-06
  1.009323242E-03 1.363283892E-03-6.360271243E-04-6.675075549E-04-7.662392218E-04
  8.566850112E-04-2.843569659E-04-6.573982361E-04-1.960956621E-04
 -3.716673938E-01 3.421761607E+00 7.149022925E-01
1   ATOM 11
                                        -------------------
   COORD  2                             NUCLEAR COORDINATES
                                        -------------------
     VIB  1

                       ATOM             X              Y              Z

                 1  CL               2.880774       0.521130       1.761640
                 2  C                5.308278      -0.128388      -0.392496
                 3  C                5.534573       1.894072      -2.363140
                 4  O                6.680673       1.514710      -4.359031
                 5  H                4.890403      -2.008004      -1.264775
                 6  H                7.113080      -0.249671       0.708326
                 7  H                4.647970       3.750256      -1.926160
                 8  O                8.522985      -2.939601      -7.958883
                 9  H                7.915684      -1.508058      -7.010373
                10  H                7.863622      -2.652344      -9.631102
                11  O                5.916392       0.891425      -9.768107
                12  H                6.652308       1.565260     -11.285217
                13  H                6.239441       2.166117      -8.517505

 MOPAC ONE- AND TWO-ELECTRON INTEGRALS REQUIRE      2933 WORDS.
 ...... END OF ONE- AND TWO-ELECTRON INTEGRALS......
 STEP CPU TIME =     0.00 TOTAL CPU TIME =          3.9 (      0.1 MIN)
 TOTAL WALL CLOCK TIME=          3.9 SECONDS, CPU UTILIZATION IS   100.00%
 ...... END OF ONE-ELECTRON INTEGRALS ......
 STEP CPU TIME =     0.00 TOTAL CPU TIME =          3.9 (      0.1 MIN)
 TOTAL WALL CLOCK TIME=          3.9 SECONDS, CPU UTILIZATION IS   100.00%

     ----------------------------
     INPUT FOR TESSERA DEFINITION
     ----------------------------
     NTSALL  =        60     MTHALL  =         4
     MTHAUT  =         0     AUTFRE  =    2.0000
     NTSFRZ  =        60     KEEPSM  =         0
     AREAKP  =   10.0000     BONDRY  =    1.0000
     AREATL  =    0.0100

     SPHERE     INITS       METHOD
          1        60       FIXPVA
          2        60       FIXPVA
          3        60       FIXPVA
          4        60       FIXPVA
          5        60       FIXPVA
          6        60       FIXPVA
          7        60       FIXPVA
          8        60       FIXPVA
          9        60       FIXPVA
         10        60       FIXPVA
         11        60       FIXPVA
         12        60       FIXPVA
         13        60       FIXPVA

     ------------------------------
      FIXPVA TESSELLATION FOR PCM
         PEIFENG SU AND HUI LI
     UNIVERSITY OF NEBRASKA-LINCOLN
     ------------------------------


     INPUT FOR CAVITY DEFINITION 
     ---------------------------
   ATOM               COORDINATES                RADIUS       EPS
      1      1.5244      0.2758      0.9322      1.8100     78.3900
      2      2.8090     -0.0679     -0.2077      1.7000     78.3900
      3      2.9288      1.0023     -1.2505      1.7000     78.3900
      4      3.5353      0.8015     -2.3067      1.5000     78.3900
      5      2.5879     -1.0626     -0.6693      1.2000     78.3900
      6      3.7641     -0.1321      0.3748      1.2000     78.3900
      7      2.4596      1.9845     -1.0193      1.2000     78.3900
      8      4.5102     -1.5556     -4.2117      1.5000     78.3900
      9      4.1888     -0.7980     -3.7097      1.2000     78.3900
     10      4.1612     -1.4036     -5.0966      1.2000     78.3900
     11      3.1308      0.4717     -5.1691      1.5000     78.3900
     12      3.5202      0.8283     -5.9719      1.2000     78.3900
     13      3.3018      1.1463     -4.5073      1.2000     78.3900

 MEMORY USED TO GENERATE CAVITY=    262582


 TOTAL NUMBER OF SPHERES=    13
 SPHERE           CENTER  (X,Y,Z) (A)               RADIUS (A)      AREA(A*A)
     1   1.524440000   0.275770000   0.932220000   2.172000000  38.490629521
     2   2.809020000  -0.067940000  -0.207700000   2.040000000   3.657223925
     3   2.928770000   1.002300000  -1.250520000   2.040000000  12.181771764
     4   3.535260000   0.801550000  -2.306700000   1.800000000   8.982829950
     5   2.587890000  -1.062590000  -0.669290000   1.440000000   7.103966586
     6   3.764080000  -0.132120000   0.374830000   1.440000000   8.266216870
     7   2.459600000   1.984550000  -1.019280000   1.440000000   7.030749145
     8   4.510170000  -1.555570000  -4.211660000   1.800000000  20.269614417
     9   4.188800000  -0.798030000  -3.709730000   1.440000000   0.593887016
    10   4.161250000  -1.403560000  -5.096560000   1.440000000   4.866390758
    11   3.130820000   0.471721772  -5.169060000   1.800000000  12.466531862
    12   3.520250000   0.828300000  -5.971880000   1.440000000   9.783715387
    13   3.301770000   1.146260000  -4.507270000   1.440000000   4.715414973

 TOTAL NUMBER OF TESSERAE=     272
 SURFACE AREA=   138.40894217(A**2)    CAVITY VOLUME=    119.29628068 (A**3)
 STEP CPU TIME =     0.00 TOTAL CPU TIME =          3.9 (      0.1 MIN)
 TOTAL WALL CLOCK TIME=          3.9 SECONDS, CPU UTILIZATION IS   100.00%

          THE SOLUTE IS ENCLOSED IN ONE CAVITY
 DONE CHECKING SEPARATION.
 STEP CPU TIME =     0.00 TOTAL CPU TIME =          3.9 (      0.1 MIN)
 TOTAL WALL CLOCK TIME=          3.9 SECONDS, CPU UTILIZATION IS   100.00%
 
 ..... DONE SETTING UP PCM CALCULATION .....
 STEP CPU TIME =     0.00 TOTAL CPU TIME =          3.9 (      0.1 MIN)
 TOTAL WALL CLOCK TIME=          3.9 SECONDS, CPU UTILIZATION IS   100.00%

          --------------------------
               R-AM1 SCF CALCULATION
          --------------------------
     DENSITY MATRIX CONV=  1.00E-05

 ITER EX DEM     TOTAL ENERGY        E CHANGE  DENSITY CHANGE    DIIS ERROR
   1  0  0      -62.0865955839   -62.0865955839   0.002051523   0.000000000
   2  1  0      -62.0866025205    -0.0000069367   0.001055085   0.000000000
   3  2  0      -62.0866037993    -0.0000012788   0.000537522   0.000000000
   4  3  0      -62.0866041069    -0.0000003076   0.000274200   0.000000000
   5  4  0      -62.0866041882    -0.0000000813   0.000140630   0.000000000
   6  5  0      -62.0866042107    -0.0000000225   0.000072628   0.000000000
   7  6  0      -62.0866042172    -0.0000000065   0.000037788   0.000000000
   8  7  0      -62.0866042190    -0.0000000019   0.000019807   0.000000000
   9  8  0      -62.0866042196    -0.0000000006   0.000010457   0.000000000
  10  9  0      -62.0866042198    -0.0000000002   0.000005558   0.000000000

          -----------------
          DENSITY CONVERGED
          -----------------
     TIME TO FORM FOCK OPERATORS=       0.1 SECONDS (       0.0 SEC/ITER)
     TIME TO SOLVE SCF EQUATIONS=       0.0 SECONDS (       0.0 SEC/ITER)

 FINAL R-AM1 ENERGY IS      -62.0866042198 AFTER  10 ITERATIONS

 HEAT OF FORMATION IS      -182.97780 KCAL/MOL
 
  
   PCM ASC=      0.0394578664
   GCAVP  =      0.0000000000
   GDISP  =      0.0000000000
   GREP   =      0.0000000000
 ...... END OF RHF CALCULATION ......
 STEP CPU TIME =     0.13 TOTAL CPU TIME =          4.0 (      0.1 MIN)
 TOTAL WALL CLOCK TIME=          4.0 SECONDS, CPU UTILIZATION IS   100.00%
 
 .... DONE WITH PCM CONTRIBUTION TO GRADIENT ....
 STEP CPU TIME =     0.00 TOTAL CPU TIME =          4.0 (      0.1 MIN)
 TOTAL WALL CLOCK TIME=          4.0 SECONDS, CPU UTILIZATION IS   100.00%
 STEP CPU TIME =     0.00 TOTAL CPU TIME =          4.0 (      0.1 MIN)
 TOTAL WALL CLOCK TIME=          4.0 SECONDS, CPU UTILIZATION IS   100.00%

 UNITS ARE HARTREE/BOHR    E'X               E'Y               E'Z 
    1 CL              -0.000038403      -0.000028138       0.000007564
    2 C               -0.000050417      -0.000031429       0.000057976
    3 C               -0.000080698       0.000074830       0.000049137
    4 O                0.000083189       0.000008560      -0.000159780
    5 H               -0.000011892      -0.000070598      -0.000029606
    6 H                0.000032876      -0.000006858       0.000036474
    7 H               -0.000026737       0.000012748       0.000006383
    8 O                0.000052400      -0.000015804       0.000043419
    9 H                0.000039680      -0.000000559       0.000043091
   10 H                0.000069685      -0.000058540      -0.000021911
   11 O                0.001497965       0.003634198       0.000881490
   12 H               -0.000720259      -0.001048513       0.000602503
   13 H               -0.000847390      -0.002469896      -0.001516739
  $VIB   
          IVIB=   1 IATOM=  11 ICOORD=   2 E=      -62.0866042198
 -3.840260690E-05-2.813807408E-05 7.563765516E-06-5.041718722E-05-3.142890119E-05
  5.797592395E-05-8.069836931E-05 7.483024444E-05 4.913663293E-05 8.318890348E-05
  8.560359443E-06-1.597802622E-04-1.189174613E-05-7.059787185E-05-2.960586047E-05
  3.287596360E-05-6.858390532E-06 3.647400170E-05-2.673683558E-05 1.274754570E-05
  6.382880369E-06 5.240027820E-05-1.580361579E-05 4.341948393E-05 3.968017395E-05
 -5.591016144E-07 4.309077163E-05 6.968507074E-05-5.854020859E-05-2.191139722E-05
  1.497965341E-03 3.634197737E-03 8.814903409E-04-7.202590923E-04-1.048513377E-03
  6.025027738E-04-8.473898937E-04-2.469896346E-03-1.516739055E-03
 -3.525509522E-01 3.407939347E+00 7.172684021E-01
1   ATOM 11
                                        -------------------
   COORD  3                             NUCLEAR COORDINATES
                                        -------------------
     VIB  1

                       ATOM             X              Y              Z

                 1  CL               2.880774       0.521130       1.761640
                 2  C                5.308278      -0.128388      -0.392496
                 3  C                5.534573       1.894072      -2.363140
                 4  O                6.680673       1.514710      -4.359031
                 5  H                4.890403      -2.008004      -1.264775
                 6  H                7.113080      -0.249671       0.708326
                 7  H                4.647970       3.750256      -1.926160
                 8  O                8.522985      -2.939601      -7.958883
                 9  H                7.915684      -1.508058      -7.010373
                10  H                7.863622      -2.652344      -9.631102
                11  O                5.916392       0.881425      -9.758107
                12  H                6.652308       1.565260     -11.285217
                13  H                6.239441       2.166117      -8.517505

 MOPAC ONE- AND TWO-ELECTRON INTEGRALS REQUIRE      2933 WORDS.
 ...... END OF ONE- AND TWO-ELECTRON INTEGRALS......
 STEP CPU TIME =     0.00 TOTAL CPU TIME =          4.0 (      0.1 MIN)
 TOTAL WALL CLOCK TIME=          4.0 SECONDS, CPU UTILIZATION IS   100.00%
 ...... END OF ONE-ELECTRON INTEGRALS ......
 STEP CPU TIME =     0.00 TOTAL CPU TIME =          4.0 (      0.1 MIN)
 TOTAL WALL CLOCK TIME=          4.0 SECONDS, CPU UTILIZATION IS   100.00%

     ----------------------------
     INPUT FOR TESSERA DEFINITION
     ----------------------------
     NTSALL  =        60     MTHALL  =         4
     MTHAUT  =         0     AUTFRE  =    2.0000
     NTSFRZ  =        60     KEEPSM  =         0
     AREAKP  =   10.0000     BONDRY  =    1.0000
     AREATL  =    0.0100

     SPHERE     INITS       METHOD
          1        60       FIXPVA
          2        60       FIXPVA
          3        60       FIXPVA
          4        60       FIXPVA
          5        60       FIXPVA
          6        60       FIXPVA
          7        60       FIXPVA
          8        60       FIXPVA
          9        60       FIXPVA
         10        60       FIXPVA
         11        60       FIXPVA
         12        60       FIXPVA
         13        60       FIXPVA

     ------------------------------
      FIXPVA TESSELLATION FOR PCM
         PEIFENG SU AND HUI LI
     UNIVERSITY OF NEBRASKA-LINCOLN
     ------------------------------


     INPUT FOR CAVITY DEFINITION 
     ---------------------------
   ATOM               COORDINATES                RADIUS       EPS
      1      1.5244      0.2758      0.9322      1.8100     78.3900
      2      2.8090     -0.0679     -0.2077      1.7000     78.3900
      3      2.9288      1.0023     -1.2505      1.7000     78.3900
      4      3.5353      0.8015     -2.3067      1.5000     78.3900
      5      2.5879     -1.0626     -0.6693      1.2000     78.3900
      6      3.7641     -0.1321      0.3748      1.2000     78.3900
      7      2.4596      1.9845     -1.0193      1.2000     78.3900
      8      4.5102     -1.5556     -4.2117      1.5000     78.3900
      9      4.1888     -0.7980     -3.7097      1.2000     78.3900
     10      4.1612     -1.4036     -5.0966      1.2000     78.3900
     11      3.1308      0.4664     -5.1638      1.5000     78.3900
     12      3.5202      0.8283     -5.9719      1.2000     78.3900
     13      3.3018      1.1463     -4.5073      1.2000     78.3900

 MEMORY USED TO GENERATE CAVITY=    262582


 TOTAL NUMBER OF SPHERES=    13
 SPHERE           CENTER  (X,Y,Z) (A)               RADIUS (A)      AREA(A*A)
     1   1.524440000   0.275770000   0.932220000   2.172000000  38.490629521
     2   2.809020000  -0.067940000  -0.207700000   2.040000000   3.657223925
     3   2.928770000   1.002300000  -1.250520000   2.040000000  12.181771764
     4   3.535260000   0.801550000  -2.306700000   1.800000000   8.977911691
     5   2.587890000  -1.062590000  -0.669290000   1.440000000   7.103966586
     6   3.764080000  -0.132120000   0.374830000   1.440000000   8.266216870
     7   2.459600000   1.984550000  -1.019280000   1.440000000   7.030749145
     8   4.510170000  -1.555570000  -4.211660000   1.800000000  20.269614417
     9   4.188800000  -0.798030000  -3.709730000   1.440000000   0.593979464
    10   4.161250000  -1.403560000  -5.096560000   1.440000000   4.867695340
    11   3.130820000   0.466430000  -5.163768228   1.800000000  12.428158176
    12   3.520250000   0.828300000  -5.971880000   1.440000000   9.893983589
    13   3.301770000   1.146260000  -4.507270000   1.440000000   4.769006620

 TOTAL NUMBER OF TESSERAE=     272
 SURFACE AREA=   138.53090711(A**2)    CAVITY VOLUME=    119.44266674 (A**3)
 STEP CPU TIME =     0.00 TOTAL CPU TIME =          4.0 (      0.1 MIN)
 TOTAL WALL CLOCK TIME=          4.0 SECONDS, CPU UTILIZATION IS   100.00%

          THE SOLUTE IS ENCLOSED IN ONE CAVITY
 DONE CHECKING SEPARATION.
 STEP CPU TIME =     0.00 TOTAL CPU TIME =          4.0 (      0.1 MIN)
 TOTAL WALL CLOCK TIME=          4.0 SECONDS, CPU UTILIZATION IS   100.00%
 
 ..... DONE SETTING UP PCM CALCULATION .....
 STEP CPU TIME =     0.00 TOTAL CPU TIME =          4.0 (      0.1 MIN)
 TOTAL WALL CLOCK TIME=          4.0 SECONDS, CPU UTILIZATION IS   100.00%

          --------------------------
               R-AM1 SCF CALCULATION
          --------------------------
     DENSITY MATRIX CONV=  1.00E-05

 ITER EX DEM     TOTAL ENERGY        E CHANGE  DENSITY CHANGE    DIIS ERROR
   1  0  0      -62.0865837708   -62.0865837708   0.001484191   0.000000000
   2  1  0      -62.0865917250    -0.0000079541   0.000570870   0.000000000
   3  2  0      -62.0865925659    -0.0000008410   0.000237126   0.000000000
   4  3  0      -62.0865927113    -0.0000001454   0.000111202   0.000000000
   5  4  0      -62.0865927424    -0.0000000311   0.000058584   0.000000000
   6  5  0      -62.0865927500    -0.0000000075   0.000031191   0.000000000
   7  6  0      -62.0865927519    -0.0000000019   0.000016769   0.000000000
   8  7  0      -62.0865927524    -0.0000000005   0.000009091   0.000000000
   9  8  0      -62.0865927526    -0.0000000002   0.000004963   0.000000000

          -----------------
          DENSITY CONVERGED
          -----------------
     TIME TO FORM FOCK OPERATORS=       0.1 SECONDS (       0.0 SEC/ITER)
     TIME TO SOLVE SCF EQUATIONS=       0.0 SECONDS (       0.0 SEC/ITER)

 FINAL R-AM1 ENERGY IS      -62.0865927526 AFTER   9 ITERATIONS

 HEAT OF FORMATION IS      -182.97061 KCAL/MOL
 
  
   PCM ASC=      0.0393945998
   GCAVP  =      0.0000000000
   GDISP  =      0.0000000000
   GREP   =      0.0000000000
 ...... END OF RHF CALCULATION ......
 STEP CPU TIME =     0.08 TOTAL CPU TIME =          4.1 (      0.1 MIN)
 TOTAL WALL CLOCK TIME=          4.1 SECONDS, CPU UTILIZATION IS   100.00%
 
 .... DONE WITH PCM CONTRIBUTION TO GRADIENT ....
 STEP CPU TIME =     0.00 TOTAL CPU TIME =          4.1 (      0.1 MIN)
 TOTAL WALL CLOCK TIME=          4.1 SECONDS, CPU UTILIZATION IS   100.00%
 STEP CPU TIME =     0.00 TOTAL CPU TIME =          4.1 (      0.1 MIN)
 TOTAL WALL CLOCK TIME=          4.1 SECONDS, CPU UTILIZATION IS   100.00%

 UNITS ARE HARTREE/BOHR    E'X               E'Y               E'Z 
    1 CL              -0.000037507      -0.000027916       0.000006653
    2 C               -0.000050680      -0.000030793       0.000057431
    3 C               -0.000086893       0.000075823       0.000058994
    4 O                0.000084896      -0.000000312      -0.000183719
    5 H               -0.000011750      -0.000071348      -0.000030191
    6 H                0.000033709      -0.000006882       0.000036508
    7 H               -0.000026185       0.000014066       0.000005337
    8 O                0.000026234       0.000023808       0.000034200
    9 H                0.000005989       0.000032942      -0.000018548
   10 H                0.000023190       0.000024906      -0.000016961
   11 O               -0.001067451       0.000312500       0.005341717
   12 H                0.001566091       0.001593969      -0.003288872
   13 H               -0.000459643      -0.001940762      -0.002002548
  $VIB   
          IVIB=   1 IATOM=  11 ICOORD=   3 E=      -62.0865927526
 -3.750654662E-05-2.791565404E-05 6.652518303E-06-5.067992277E-05-3.079321776E-05
  5.743101811E-05-8.689322611E-05 7.582338204E-05 5.899421289E-05 8.489596666E-05
 -3.124860943E-07-1.837190686E-04-1.174993839E-05-7.134764512E-05-3.019069121E-05
  3.370904844E-05-6.881674569E-06 3.650820251E-05-2.618530634E-05 1.406581563E-05
  5.336797876E-06 2.623397147E-05 2.380757876E-05 3.419977115E-05 5.989355567E-06
  3.294239535E-05-1.854800514E-05 2.319008803E-05 2.490575479E-05-1.696090629E-05
 -1.067451493E-03 3.124995749E-04 5.341716593E-03 1.566090731E-03 1.593968585E-03
 -3.288872452E-03-4.596427283E-04-1.940762409E-03-2.002547990E-03
 -3.577206588E-01 3.419009679E+00 7.068497340E-01
1   ATOM 12
                                        -------------------
   COORD  1                             NUCLEAR COORDINATES
                                        -------------------
     VIB  1

                       ATOM             X              Y              Z

                 1  CL               2.880774       0.521130       1.761640
                 2  C                5.308278      -0.128388      -0.392496
                 3  C                5.534573       1.894072      -2.363140
                 4  O                6.680673       1.514710      -4.359031
                 5  H                4.890403      -2.008004      -1.264775
                 6  H                7.113080      -0.249671       0.708326
                 7  H                4.647970       3.750256      -1.926160
                 8  O                8.522985      -2.939601      -7.958883
                 9  H                7.915684      -1.508058      -7.010373
                10  H                7.863622      -2.652344      -9.631102
                11  O                5.916392       0.881425      -9.768107
                12  H                6.662308       1.565260     -11.285217
                13  H                6.239441       2.166117      -8.517505

 MOPAC ONE- AND TWO-ELECTRON INTEGRALS REQUIRE      2933 WORDS.
 ...... END OF ONE- AND TWO-ELECTRON INTEGRALS......
 STEP CPU TIME =     0.00 TOTAL CPU TIME =          4.1 (      0.1 MIN)
 TOTAL WALL CLOCK TIME=          4.1 SECONDS, CPU UTILIZATION IS   100.00%
 ...... END OF ONE-ELECTRON INTEGRALS ......
 STEP CPU TIME =     0.00 TOTAL CPU TIME =          4.1 (      0.1 MIN)
 TOTAL WALL CLOCK TIME=          4.1 SECONDS, CPU UTILIZATION IS   100.00%

     ----------------------------
     INPUT FOR TESSERA DEFINITION
     ----------------------------
     NTSALL  =        60     MTHALL  =         4
     MTHAUT  =         0     AUTFRE  =    2.0000
     NTSFRZ  =        60     KEEPSM  =         0
     AREAKP  =   10.0000     BONDRY  =    1.0000
     AREATL  =    0.0100

     SPHERE     INITS       METHOD
          1        60       FIXPVA
          2        60       FIXPVA
          3        60       FIXPVA
          4        60       FIXPVA
          5        60       FIXPVA
          6        60       FIXPVA
          7        60       FIXPVA
          8        60       FIXPVA
          9        60       FIXPVA
         10        60       FIXPVA
         11        60       FIXPVA
         12        60       FIXPVA
         13        60       FIXPVA

     ------------------------------
      FIXPVA TESSELLATION FOR PCM
         PEIFENG SU AND HUI LI
     UNIVERSITY OF NEBRASKA-LINCOLN
     ------------------------------


     INPUT FOR CAVITY DEFINITION 
     ---------------------------
   ATOM               COORDINATES                RADIUS       EPS
      1      1.5244      0.2758      0.9322      1.8100     78.3900
      2      2.8090     -0.0679     -0.2077      1.7000     78.3900
      3      2.9288      1.0023     -1.2505      1.7000     78.3900
      4      3.5353      0.8015     -2.3067      1.5000     78.3900
      5      2.5879     -1.0626     -0.6693      1.2000     78.3900
      6      3.7641     -0.1321      0.3748      1.2000     78.3900
      7      2.4596      1.9845     -1.0193      1.2000     78.3900
      8      4.5102     -1.5556     -4.2117      1.5000     78.3900
      9      4.1888     -0.7980     -3.7097      1.2000     78.3900
     10      4.1612     -1.4036     -5.0966      1.2000     78.3900
     11      3.1308      0.4664     -5.1691      1.5000     78.3900
     12      3.5255      0.8283     -5.9719      1.2000     78.3900
     13      3.3018      1.1463     -4.5073      1.2000     78.3900

 MEMORY USED TO GENERATE CAVITY=    262582


 TOTAL NUMBER OF SPHERES=    13
 SPHERE           CENTER  (X,Y,Z) (A)               RADIUS (A)      AREA(A*A)
     1   1.524440000   0.275770000   0.932220000   2.172000000  38.490629521
     2   2.809020000  -0.067940000  -0.207700000   2.040000000   3.657223925
     3   2.928770000   1.002300000  -1.250520000   2.040000000  12.181771764
     4   3.535260000   0.801550000  -2.306700000   1.800000000   8.978195913
     5   2.587890000  -1.062590000  -0.669290000   1.440000000   7.103966586
     6   3.764080000  -0.132120000   0.374830000   1.440000000   8.266216870
     7   2.459600000   1.984550000  -1.019280000   1.440000000   7.030749145
     8   4.510170000  -1.555570000  -4.211660000   1.800000000  20.261952284
     9   4.188800000  -0.798030000  -3.709730000   1.440000000   0.594081452
    10   4.161250000  -1.403560000  -5.096560000   1.440000000   4.861721622
    11   3.130820000   0.466430000  -5.169060000   1.800000000  12.439258795
    12   3.525541772   0.828300000  -5.971880000   1.440000000   9.829544462
    13   3.301770000   1.146260000  -4.507270000   1.440000000   4.775226177

 TOTAL NUMBER OF TESSERAE=     272
 SURFACE AREA=   138.47053852(A**2)    CAVITY VOLUME=    119.35859798 (A**3)
 STEP CPU TIME =     0.00 TOTAL CPU TIME =          4.1 (      0.1 MIN)
 TOTAL WALL CLOCK TIME=          4.1 SECONDS, CPU UTILIZATION IS   100.00%

          THE SOLUTE IS ENCLOSED IN ONE CAVITY
 DONE CHECKING SEPARATION.
 STEP CPU TIME =     0.00 TOTAL CPU TIME =          4.1 (      0.1 MIN)
 TOTAL WALL CLOCK TIME=          4.1 SECONDS, CPU UTILIZATION IS   100.00%
 
 ..... DONE SETTING UP PCM CALCULATION .....
 STEP CPU TIME =     0.00 TOTAL CPU TIME =          4.1 (      0.1 MIN)
 TOTAL WALL CLOCK TIME=          4.1 SECONDS, CPU UTILIZATION IS   100.00%

          --------------------------
               R-AM1 SCF CALCULATION
          --------------------------
     DENSITY MATRIX CONV=  1.00E-05

 ITER EX DEM     TOTAL ENERGY        E CHANGE  DENSITY CHANGE    DIIS ERROR
   1  0  0      -62.0866101728   -62.0866101728   0.001973561   0.000000000
   2  1  0      -62.0866145242    -0.0000043514   0.001048614   0.000000000
   3  2  0      -62.0866156645    -0.0000011403   0.000564025   0.000000000
   4  3  0      -62.0866159936    -0.0000003291   0.000305307   0.000000000
   5  4  0      -62.0866160909    -0.0000000973   0.000165897   0.000000000
   6  5  0      -62.0866161199    -0.0000000290   0.000090386   0.000000000
   7  6  0      -62.0866161286    -0.0000000087   0.000049346   0.000000000
   8  7  0      -62.0866161312    -0.0000000026   0.000026984   0.000000000
   9  8  0      -62.0866161321    -0.0000000008   0.000014777   0.000000000
  10  9  0      -62.0866161323    -0.0000000002   0.000008101   0.000000000

          -----------------
          DENSITY CONVERGED
          -----------------
     TIME TO FORM FOCK OPERATORS=       0.1 SECONDS (       0.0 SEC/ITER)
     TIME TO SOLVE SCF EQUATIONS=       0.0 SECONDS (       0.0 SEC/ITER)

 FINAL R-AM1 ENERGY IS      -62.0866161323 AFTER  10 ITERATIONS

 HEAT OF FORMATION IS      -182.98528 KCAL/MOL
 
  
   PCM ASC=      0.0394129797
   GCAVP  =      0.0000000000
   GDISP  =      0.0000000000
   GREP   =      0.0000000000
 ...... END OF RHF CALCULATION ......
 STEP CPU TIME =     0.10 TOTAL CPU TIME =          4.2 (      0.1 MIN)
 TOTAL WALL CLOCK TIME=          4.2 SECONDS, CPU UTILIZATION IS   100.00%
 
 .... DONE WITH PCM CONTRIBUTION TO GRADIENT ....
 STEP CPU TIME =     0.00 TOTAL CPU TIME =          4.2 (      0.1 MIN)
 TOTAL WALL CLOCK TIME=          4.2 SECONDS, CPU UTILIZATION IS   100.00%
 STEP CPU TIME =     0.00 TOTAL CPU TIME =          4.2 (      0.1 MIN)
 TOTAL WALL CLOCK TIME=          4.2 SECONDS, CPU UTILIZATION IS   100.00%

 UNITS ARE HARTREE/BOHR    E'X               E'Y               E'Z 
    1 CL              -0.000038334      -0.000028131       0.000007522
    2 C               -0.000050750      -0.000031353       0.000058003
    3 C               -0.000080175       0.000074176       0.000050165
    4 O                0.000084157       0.000006993      -0.000153296
    5 H               -0.000011864      -0.000070764      -0.000029743
    6 H                0.000032940      -0.000006823       0.000036457
    7 H               -0.000026505       0.000012866       0.000006390
    8 O                0.000031230       0.000008511       0.000022152
    9 H                0.000022318       0.000017838       0.000012633
   10 H                0.000032071       0.000019568      -0.000008184
   11 O               -0.000948643      -0.001089572       0.001789480
   12 H                0.000880805       0.000935765      -0.001792446
   13 H                0.000072751       0.000150926       0.000000867
  $VIB   
          IVIB=   1 IATOM=  12 ICOORD=   1 E=      -62.0866161323
 -3.833417079E-05-2.813072250E-05 7.522418469E-06-5.075023631E-05-3.135331812E-05
  5.800284248E-05-8.017548159E-05 7.417627993E-05 5.016477383E-05 8.415651675E-05
  6.993005361E-06-1.532959878E-04-1.186405169E-05-7.076372303E-05-2.974323582E-05
  3.294022533E-05-6.822810813E-06 3.645691975E-05-2.650539091E-05 1.286568420E-05
  6.389819557E-06 3.122995476E-05 8.511428638E-06 2.215235106E-05 2.231824517E-05
  1.783799929E-05 1.263347696E-05 3.207146192E-05 1.956782061E-05-8.183757753E-06
 -9.486430530E-04-1.089571840E-03 1.789479699E-03 8.808047293E-04 9.357646414E-04
 -1.792445925E-03 7.275125110E-05 1.509255549E-04 8.666052508E-07
 -3.484954907E-01 3.416656118E+00 7.190084418E-01
1   ATOM 12
                                        -------------------
   COORD  2                             NUCLEAR COORDINATES
                                        -------------------
     VIB  1

                       ATOM             X              Y              Z

                 1  CL               2.880774       0.521130       1.761640
                 2  C                5.308278      -0.128388      -0.392496
                 3  C                5.534573       1.894072      -2.363140
                 4  O                6.680673       1.514710      -4.359031
                 5  H                4.890403      -2.008004      -1.264775
                 6  H                7.113080      -0.249671       0.708326
                 7  H                4.647970       3.750256      -1.926160
                 8  O                8.522985      -2.939601      -7.958883
                 9  H                7.915684      -1.508058      -7.010373
                10  H                7.863622      -2.652344      -9.631102
                11  O                5.916392       0.881425      -9.768107
                12  H                6.652308       1.575260     -11.285217
                13  H                6.239441       2.166117      -8.517505

 MOPAC ONE- AND TWO-ELECTRON INTEGRALS REQUIRE      2933 WORDS.
 ...... END OF ONE- AND TWO-ELECTRON INTEGRALS......
 STEP CPU TIME =     0.00 TOTAL CPU TIME =          4.2 (      0.1 MIN)
 TOTAL WALL CLOCK TIME=          4.2 SECONDS, CPU UTILIZATION IS   100.00%
 ...... END OF ONE-ELECTRON INTEGRALS ......
 STEP CPU TIME =     0.00 TOTAL CPU TIME =          4.2 (      0.1 MIN)
 TOTAL WALL CLOCK TIME=          4.2 SECONDS, CPU UTILIZATION IS   100.00%

     ----------------------------
     INPUT FOR TESSERA DEFINITION
     ----------------------------
     NTSALL  =        60     MTHALL  =         4
     MTHAUT  =         0     AUTFRE  =    2.0000
     NTSFRZ  =        60     KEEPSM  =         0
     AREAKP  =   10.0000     BONDRY  =    1.0000
     AREATL  =    0.0100

     SPHERE     INITS       METHOD
          1        60       FIXPVA
          2        60       FIXPVA
          3        60       FIXPVA
          4        60       FIXPVA
          5        60       FIXPVA
          6        60       FIXPVA
          7        60       FIXPVA
          8        60       FIXPVA
          9        60       FIXPVA
         10        60       FIXPVA
         11        60       FIXPVA
         12        60       FIXPVA
         13        60       FIXPVA

     ------------------------------
      FIXPVA TESSELLATION FOR PCM
         PEIFENG SU AND HUI LI
     UNIVERSITY OF NEBRASKA-LINCOLN
     ------------------------------


     INPUT FOR CAVITY DEFINITION 
     ---------------------------
   ATOM               COORDINATES                RADIUS       EPS
      1      1.5244      0.2758      0.9322      1.8100     78.3900
      2      2.8090     -0.0679     -0.2077      1.7000     78.3900
      3      2.9288      1.0023     -1.2505      1.7000     78.3900
      4      3.5353      0.8015     -2.3067      1.5000     78.3900
      5      2.5879     -1.0626     -0.6693      1.2000     78.3900
      6      3.7641     -0.1321      0.3748      1.2000     78.3900
      7      2.4596      1.9845     -1.0193      1.2000     78.3900
      8      4.5102     -1.5556     -4.2117      1.5000     78.3900
      9      4.1888     -0.7980     -3.7097      1.2000     78.3900
     10      4.1612     -1.4036     -5.0966      1.2000     78.3900
     11      3.1308      0.4664     -5.1691      1.5000     78.3900
     12      3.5202      0.8336     -5.9719      1.2000     78.3900
     13      3.3018      1.1463     -4.5073      1.2000     78.3900

 MEMORY USED TO GENERATE CAVITY=    262582


 TOTAL NUMBER OF SPHERES=    13
 SPHERE           CENTER  (X,Y,Z) (A)               RADIUS (A)      AREA(A*A)
     1   1.524440000   0.275770000   0.932220000   2.172000000  38.490629521
     2   2.809020000  -0.067940000  -0.207700000   2.040000000   3.657223925
     3   2.928770000   1.002300000  -1.250520000   2.040000000  12.181771764
     4   3.535260000   0.801550000  -2.306700000   1.800000000   8.978195913
     5   2.587890000  -1.062590000  -0.669290000   1.440000000   7.103966586
     6   3.764080000  -0.132120000   0.374830000   1.440000000   8.266216870
     7   2.459600000   1.984550000  -1.019280000   1.440000000   7.030749145
     8   4.510170000  -1.555570000  -4.211660000   1.800000000  20.270815930
     9   4.188800000  -0.798030000  -3.709730000   1.440000000   0.594081452
    10   4.161250000  -1.403560000  -5.096560000   1.440000000   4.875933689
    11   3.130820000   0.466430000  -5.169060000   1.800000000  12.439251185
    12   3.520250000   0.833591772  -5.971880000   1.440000000   9.902647361
    13   3.301770000   1.146260000  -4.507270000   1.440000000   4.768151052

 TOTAL NUMBER OF TESSERAE=     272
 SURFACE AREA=   138.55963439(A**2)    CAVITY VOLUME=    119.42681381 (A**3)
 STEP CPU TIME =     0.00 TOTAL CPU TIME =          4.2 (      0.1 MIN)
 TOTAL WALL CLOCK TIME=          4.2 SECONDS, CPU UTILIZATION IS   100.00%

          THE SOLUTE IS ENCLOSED IN ONE CAVITY
 DONE CHECKING SEPARATION.
 STEP CPU TIME =     0.00 TOTAL CPU TIME =          4.2 (      0.1 MIN)
 TOTAL WALL CLOCK TIME=          4.2 SECONDS, CPU UTILIZATION IS   100.00%
 
 ..... DONE SETTING UP PCM CALCULATION .....
 STEP CPU TIME =     0.00 TOTAL CPU TIME =          4.2 (      0.1 MIN)
 TOTAL WALL CLOCK TIME=          4.2 SECONDS, CPU UTILIZATION IS   100.00%

          --------------------------
               R-AM1 SCF CALCULATION
          --------------------------
     DENSITY MATRIX CONV=  1.00E-05

 ITER EX DEM     TOTAL ENERGY        E CHANGE  DENSITY CHANGE    DIIS ERROR
   1  0  0      -62.0866092411   -62.0866092411   0.001721785   0.000000000
   2  1  0      -62.0866131266    -0.0000038855   0.000787991   0.000000000
   3  2  0      -62.0866139113    -0.0000007847   0.000367505   0.000000000
   4  3  0      -62.0866140872    -0.0000001759   0.000174186   0.000000000
   5  4  0      -62.0866141293    -0.0000000421   0.000083813   0.000000000
   6  5  0      -62.0866141399    -0.0000000106   0.000040921   0.000000000
   7  6  0      -62.0866141427    -0.0000000028   0.000020676   0.000000000
   8  7  0      -62.0866141435    -0.0000000008   0.000011693   0.000000000
   9  8  0      -62.0866141438    -0.0000000003   0.000006573   0.000000000

          -----------------
          DENSITY CONVERGED
          -----------------
     TIME TO FORM FOCK OPERATORS=       0.1 SECONDS (       0.0 SEC/ITER)
     TIME TO SOLVE SCF EQUATIONS=       0.0 SECONDS (       0.0 SEC/ITER)

 FINAL R-AM1 ENERGY IS      -62.0866141438 AFTER   9 ITERATIONS

 HEAT OF FORMATION IS      -182.98403 KCAL/MOL
 
  
   PCM ASC=      0.0393772347
   GCAVP  =      0.0000000000
   GDISP  =      0.0000000000
   GREP   =      0.0000000000
 ...... END OF RHF CALCULATION ......
 STEP CPU TIME =     0.11 TOTAL CPU TIME =          4.3 (      0.1 MIN)
 TOTAL WALL CLOCK TIME=          4.3 SECONDS, CPU UTILIZATION IS   100.00%
 
 .... DONE WITH PCM CONTRIBUTION TO GRADIENT ....
 STEP CPU TIME =     0.00 TOTAL CPU TIME =          4.3 (      0.1 MIN)
 TOTAL WALL CLOCK TIME=          4.3 SECONDS, CPU UTILIZATION IS   100.00%
 STEP CPU TIME =     0.00 TOTAL CPU TIME =          4.3 (      0.1 MIN)
 TOTAL WALL CLOCK TIME=          4.3 SECONDS, CPU UTILIZATION IS   100.00%

 UNITS ARE HARTREE/BOHR    E'X               E'Y               E'Z 
    1 CL              -0.000038300      -0.000028112       0.000007470
    2 C               -0.000050759      -0.000031315       0.000057963
    3 C               -0.000080467       0.000074234       0.000050415
    4 O                0.000084673       0.000006882      -0.000154759
    5 H               -0.000011840      -0.000070798      -0.000029766
    6 H                0.000032988      -0.000006824       0.000036455
    7 H               -0.000026490       0.000012925       0.000006368
    8 O                0.000034108       0.000008357       0.000018232
    9 H                0.000014701       0.000023714       0.000014353
   10 H                0.000031442       0.000004052      -0.000002587
   11 O               -0.001075974      -0.001493047       0.001756167
   12 H                0.000876841       0.001220165      -0.001475651
   13 H                0.000209076       0.000279766      -0.000284661
  $VIB   
          IVIB=   1 IATOM=  12 ICOORD=   2 E=      -62.0866141438
 -3.830029088E-05-2.811211746E-05 7.470082746E-06-5.075909514E-05-3.131455323E-05
  5.796323152E-05-8.046676462E-05 7.423436478E-05 5.041544132E-05 8.467325728E-05
  6.882271824E-06-1.547587344E-04-1.184006195E-05-7.079759085E-05-2.976586690E-05
  3.298802843E-05-6.823903498E-06 3.645521725E-05-2.648952695E-05 1.292523873E-05
  6.368106256E-06 3.410778419E-05 8.356536455E-06 1.823235386E-05 1.470135803E-05
  2.371361515E-05 1.435290693E-05 3.144232855E-05 4.052495667E-06-2.587103404E-06
 -1.075974027E-03-1.493046996E-03 1.756167227E-03 8.768411355E-04 1.220165112E-03
 -1.475651364E-03 2.090758742E-04 2.797655268E-04-2.846614983E-04
 -3.579688647E-01 3.424547681E+00 7.189929168E-01
1   ATOM 12
                                        -------------------
   COORD  3                             NUCLEAR COORDINATES
                                        -------------------
     VIB  1

                       ATOM             X              Y              Z

                 1  CL               2.880774       0.521130       1.761640
                 2  C                5.308278      -0.128388      -0.392496
                 3  C                5.534573       1.894072      -2.363140
                 4  O                6.680673       1.514710      -4.359031
                 5  H                4.890403      -2.008004      -1.264775
                 6  H                7.113080      -0.249671       0.708326
                 7  H                4.647970       3.750256      -1.926160
                 8  O                8.522985      -2.939601      -7.958883
                 9  H                7.915684      -1.508058      -7.010373
                10  H                7.863622      -2.652344      -9.631102
                11  O                5.916392       0.881425      -9.768107
                12  H                6.652308       1.565260     -11.275217
                13  H                6.239441       2.166117      -8.517505

 MOPAC ONE- AND TWO-ELECTRON INTEGRALS REQUIRE      2933 WORDS.
 ...... END OF ONE- AND TWO-ELECTRON INTEGRALS......
 STEP CPU TIME =     0.00 TOTAL CPU TIME =          4.3 (      0.1 MIN)
 TOTAL WALL CLOCK TIME=          4.3 SECONDS, CPU UTILIZATION IS   100.00%
 ...... END OF ONE-ELECTRON INTEGRALS ......
 STEP CPU TIME =     0.00 TOTAL CPU TIME =          4.3 (      0.1 MIN)
 TOTAL WALL CLOCK TIME=          4.3 SECONDS, CPU UTILIZATION IS   100.00%

     ----------------------------
     INPUT FOR TESSERA DEFINITION
     ----------------------------
     NTSALL  =        60     MTHALL  =         4
     MTHAUT  =         0     AUTFRE  =    2.0000
     NTSFRZ  =        60     KEEPSM  =         0
     AREAKP  =   10.0000     BONDRY  =    1.0000
     AREATL  =    0.0100

     SPHERE     INITS       METHOD
          1        60       FIXPVA
          2        60       FIXPVA
          3        60       FIXPVA
          4        60       FIXPVA
          5        60       FIXPVA
          6        60       FIXPVA
          7        60       FIXPVA
          8        60       FIXPVA
          9        60       FIXPVA
         10        60       FIXPVA
         11        60       FIXPVA
         12        60       FIXPVA
         13        60       FIXPVA

     ------------------------------
      FIXPVA TESSELLATION FOR PCM
         PEIFENG SU AND HUI LI
     UNIVERSITY OF NEBRASKA-LINCOLN
     ------------------------------


     INPUT FOR CAVITY DEFINITION 
     ---------------------------
   ATOM               COORDINATES                RADIUS       EPS
      1      1.5244      0.2758      0.9322      1.8100     78.3900
      2      2.8090     -0.0679     -0.2077      1.7000     78.3900
      3      2.9288      1.0023     -1.2505      1.7000     78.3900
      4      3.5353      0.8015     -2.3067      1.5000     78.3900
      5      2.5879     -1.0626     -0.6693      1.2000     78.3900
      6      3.7641     -0.1321      0.3748      1.2000     78.3900
      7      2.4596      1.9845     -1.0193      1.2000     78.3900
      8      4.5102     -1.5556     -4.2117      1.5000     78.3900
      9      4.1888     -0.7980     -3.7097      1.2000     78.3900
     10      4.1612     -1.4036     -5.0966      1.2000     78.3900
     11      3.1308      0.4664     -5.1691      1.5000     78.3900
     12      3.5202      0.8283     -5.9666      1.2000     78.3900
     13      3.3018      1.1463     -4.5073      1.2000     78.3900

 MEMORY USED TO GENERATE CAVITY=    262582


 TOTAL NUMBER OF SPHERES=    13
 SPHERE           CENTER  (X,Y,Z) (A)               RADIUS (A)      AREA(A*A)
     1   1.524440000   0.275770000   0.932220000   2.172000000  38.490629521
     2   2.809020000  -0.067940000  -0.207700000   2.040000000   3.657223925
     3   2.928770000   1.002300000  -1.250520000   2.040000000  12.181771764
     4   3.535260000   0.801550000  -2.306700000   1.800000000   8.978195913
     5   2.587890000  -1.062590000  -0.669290000   1.440000000   7.103966586
     6   3.764080000  -0.132120000   0.374830000   1.440000000   8.266216870
     7   2.459600000   1.984550000  -1.019280000   1.440000000   7.030749145
     8   4.510170000  -1.555570000  -4.211660000   1.800000000  20.268492448
     9   4.188800000  -0.798030000  -3.709730000   1.440000000   0.594081452
    10   4.161250000  -1.403560000  -5.096560000   1.440000000   4.871599019
    11   3.130820000   0.466430000  -5.169060000   1.800000000  12.439258722
    12   3.520250000   0.828300000  -5.966588228   1.440000000   9.784215346
    13   3.301770000   1.146260000  -4.507270000   1.440000000   4.774144989

 TOTAL NUMBER OF TESSERAE=     272
 SURFACE AREA=   138.44054570(A**2)    CAVITY VOLUME=    119.33317126 (A**3)
 STEP CPU TIME =     0.00 TOTAL CPU TIME =          4.3 (      0.1 MIN)
 TOTAL WALL CLOCK TIME=          4.3 SECONDS, CPU UTILIZATION IS   100.00%

          THE SOLUTE IS ENCLOSED IN ONE CAVITY
 DONE CHECKING SEPARATION.
 STEP CPU TIME =     0.00 TOTAL CPU TIME =          4.3 (      0.1 MIN)
 TOTAL WALL CLOCK TIME=          4.3 SECONDS, CPU UTILIZATION IS   100.00%
 
 ..... DONE SETTING UP PCM CALCULATION .....
 STEP CPU TIME =     0.00 TOTAL CPU TIME =          4.3 (      0.1 MIN)
 TOTAL WALL CLOCK TIME=          4.3 SECONDS, CPU UTILIZATION IS   100.00%

          --------------------------
               R-AM1 SCF CALCULATION
          --------------------------
     DENSITY MATRIX CONV=  1.00E-05

 ITER EX DEM     TOTAL ENERGY        E CHANGE  DENSITY CHANGE    DIIS ERROR
   1  0  0      -62.0866045466   -62.0866045466   0.001023233   0.000000000
   2  1  0      -62.0866076253    -0.0000030787   0.000310842   0.000000000
   3  2  0      -62.0866078738    -0.0000002485   0.000166799   0.000000000
   4  3  0      -62.0866079139    -0.0000000400   0.000088508   0.000000000
   5  4  0      -62.0866079231    -0.0000000092   0.000047005   0.000000000
   6  5  0      -62.0866079255    -0.0000000024   0.000025076   0.000000000
   7  6  0      -62.0866079262    -0.0000000007   0.000013445   0.000000000
   8  7  0      -62.0866079263    -0.0000000002   0.000007243   0.000000000

          -----------------
          DENSITY CONVERGED
          -----------------
     TIME TO FORM FOCK OPERATORS=       0.1 SECONDS (       0.0 SEC/ITER)
     TIME TO SOLVE SCF EQUATIONS=       0.0 SECONDS (       0.0 SEC/ITER)

 FINAL R-AM1 ENERGY IS      -62.0866079263 AFTER   8 ITERATIONS

 HEAT OF FORMATION IS      -182.98013 KCAL/MOL
 
  
   PCM ASC=      0.0394178066
   GCAVP  =      0.0000000000
   GDISP  =      0.0000000000
   GREP   =      0.0000000000
 ...... END OF RHF CALCULATION ......
 STEP CPU TIME =     0.07 TOTAL CPU TIME =          4.4 (      0.1 MIN)
 TOTAL WALL CLOCK TIME=          4.4 SECONDS, CPU UTILIZATION IS   100.00%
 
 .... DONE WITH PCM CONTRIBUTION TO GRADIENT ....
 STEP CPU TIME =     0.00 TOTAL CPU TIME =          4.4 (      0.1 MIN)
 TOTAL WALL CLOCK TIME=          4.4 SECONDS, CPU UTILIZATION IS   100.00%
 STEP CPU TIME =     0.00 TOTAL CPU TIME =          4.4 (      0.1 MIN)
 TOTAL WALL CLOCK TIME=          4.4 SECONDS, CPU UTILIZATION IS   100.00%

 UNITS ARE HARTREE/BOHR    E'X               E'Y               E'Z 
    1 CL              -0.000038475      -0.000028182       0.000007666
    2 C               -0.000050907      -0.000031428       0.000058065
    3 C               -0.000078919       0.000073739       0.000048028
    4 O                0.000083629       0.000007839      -0.000148272
    5 H               -0.000011872      -0.000070658      -0.000029644
    6 H                0.000032806      -0.000006800       0.000036440
    7 H               -0.000026483       0.000012655       0.000006661
    8 O                0.000033892       0.000002917       0.000023596
    9 H                0.000018987       0.000023142       0.000010817
   10 H                0.000029259       0.000023426      -0.000009066
   11 O                0.001123839       0.000757168      -0.002622080
   12 H               -0.001299704      -0.000923700       0.003041567
   13 H                0.000183950       0.000159881      -0.000423779
  $VIB   
          IVIB=   1 IATOM=  12 ICOORD=   3 E=      -62.0866079263
 -3.847508122E-05-2.818235550E-05 7.666001315E-06-5.090682518E-05-3.142795964E-05
  5.806539779E-05-7.891906968E-05 7.373867073E-05 4.802834049E-05 8.362920208E-05
  7.839189505E-06-1.482720202E-04-1.187241181E-05-7.065765083E-05-2.964388878E-05
  3.280558038E-05-6.799760754E-06 3.644020136E-05-2.648327912E-05 1.265521876E-05
  6.661458648E-06 3.389186992E-05 2.917062338E-06 2.359622359E-05 1.898693637E-05
  2.314230267E-05 1.081677205E-05 2.925855319E-05 2.342649451E-05-9.065900842E-06
  1.123838843E-03 7.571677012E-04-2.622080357E-03-1.299704071E-03-9.237002502E-04
  3.041567060E-03 1.839497523E-04 1.598813372E-04-4.237792881E-04
 -3.542479260E-01 3.419399306E+00 7.208865274E-01
1   ATOM 13
                                        -------------------
   COORD  1                             NUCLEAR COORDINATES
                                        -------------------
     VIB  1

                       ATOM             X              Y              Z

                 1  CL               2.880774       0.521130       1.761640
                 2  C                5.308278      -0.128388      -0.392496
                 3  C                5.534573       1.894072      -2.363140
                 4  O                6.680673       1.514710      -4.359031
                 5  H                4.890403      -2.008004      -1.264775
                 6  H                7.113080      -0.249671       0.708326
                 7  H                4.647970       3.750256      -1.926160
                 8  O                8.522985      -2.939601      -7.958883
                 9  H                7.915684      -1.508058      -7.010373
                10  H                7.863622      -2.652344      -9.631102
                11  O                5.916392       0.881425      -9.768107
                12  H                6.652308       1.565260     -11.285217
                13  H                6.249441       2.166117      -8.517505

 MOPAC ONE- AND TWO-ELECTRON INTEGRALS REQUIRE      2933 WORDS.
 ...... END OF ONE- AND TWO-ELECTRON INTEGRALS......
 STEP CPU TIME =     0.00 TOTAL CPU TIME =          4.4 (      0.1 MIN)
 TOTAL WALL CLOCK TIME=          4.4 SECONDS, CPU UTILIZATION IS   100.00%
 ...... END OF ONE-ELECTRON INTEGRALS ......
 STEP CPU TIME =     0.00 TOTAL CPU TIME =          4.4 (      0.1 MIN)
 TOTAL WALL CLOCK TIME=          4.4 SECONDS, CPU UTILIZATION IS   100.00%

     ----------------------------
     INPUT FOR TESSERA DEFINITION
     ----------------------------
     NTSALL  =        60     MTHALL  =         4
     MTHAUT  =         0     AUTFRE  =    2.0000
     NTSFRZ  =        60     KEEPSM  =         0
     AREAKP  =   10.0000     BONDRY  =    1.0000
     AREATL  =    0.0100

     SPHERE     INITS       METHOD
          1        60       FIXPVA
          2        60       FIXPVA
          3        60       FIXPVA
          4        60       FIXPVA
          5        60       FIXPVA
          6        60       FIXPVA
          7        60       FIXPVA
          8        60       FIXPVA
          9        60       FIXPVA
         10        60       FIXPVA
         11        60       FIXPVA
         12        60       FIXPVA
         13        60       FIXPVA

     ------------------------------
      FIXPVA TESSELLATION FOR PCM
         PEIFENG SU AND HUI LI
     UNIVERSITY OF NEBRASKA-LINCOLN
     ------------------------------


     INPUT FOR CAVITY DEFINITION 
     ---------------------------
   ATOM               COORDINATES                RADIUS       EPS
      1      1.5244      0.2758      0.9322      1.8100     78.3900
      2      2.8090     -0.0679     -0.2077      1.7000     78.3900
      3      2.9288      1.0023     -1.2505      1.7000     78.3900
      4      3.5353      0.8015     -2.3067      1.5000     78.3900
      5      2.5879     -1.0626     -0.6693      1.2000     78.3900
      6      3.7641     -0.1321      0.3748      1.2000     78.3900
      7      2.4596      1.9845     -1.0193      1.2000     78.3900
      8      4.5102     -1.5556     -4.2117      1.5000     78.3900
      9      4.1888     -0.7980     -3.7097      1.2000     78.3900
     10      4.1612     -1.4036     -5.0966      1.2000     78.3900
     11      3.1308      0.4664     -5.1691      1.5000     78.3900
     12      3.5202      0.8283     -5.9719      1.2000     78.3900
     13      3.3071      1.1463     -4.5073      1.2000     78.3900

 MEMORY USED TO GENERATE CAVITY=    262582


 TOTAL NUMBER OF SPHERES=    13
 SPHERE           CENTER  (X,Y,Z) (A)               RADIUS (A)      AREA(A*A)
     1   1.524440000   0.275770000   0.932220000   2.172000000  38.490629521
     2   2.809020000  -0.067940000  -0.207700000   2.040000000   3.657223925
     3   2.928770000   1.002300000  -1.250520000   2.040000000  12.181918884
     4   3.535260000   0.801550000  -2.306700000   1.800000000   8.987856959
     5   2.587890000  -1.062590000  -0.669290000   1.440000000   7.103966586
     6   3.764080000  -0.132120000   0.374830000   1.440000000   8.266216870
     7   2.459600000   1.984550000  -1.019280000   1.440000000   7.030749145
     8   4.510170000  -1.555570000  -4.211660000   1.800000000  20.269614417
     9   4.188800000  -0.798030000  -3.709730000   1.440000000   0.591295085
    10   4.161250000  -1.403560000  -5.096560000   1.440000000   4.865725829
    11   3.130820000   0.466430000  -5.169060000   1.800000000  12.487167539
    12   3.520250000   0.828300000  -5.971880000   1.440000000   9.844649701
    13   3.307061772   1.146260000  -4.507270000   1.440000000   4.768806707

 TOTAL NUMBER OF TESSERAE=     272
 SURFACE AREA=   138.54582117(A**2)    CAVITY VOLUME=    119.42197329 (A**3)
 STEP CPU TIME =     0.00 TOTAL CPU TIME =          4.4 (      0.1 MIN)
 TOTAL WALL CLOCK TIME=          4.4 SECONDS, CPU UTILIZATION IS   100.00%

          THE SOLUTE IS ENCLOSED IN ONE CAVITY
 DONE CHECKING SEPARATION.
 STEP CPU TIME =     0.00 TOTAL CPU TIME =          4.4 (      0.1 MIN)
 TOTAL WALL CLOCK TIME=          4.4 SECONDS, CPU UTILIZATION IS   100.00%
 
 ..... DONE SETTING UP PCM CALCULATION .....
 STEP CPU TIME =     0.00 TOTAL CPU TIME =          4.4 (      0.1 MIN)
 TOTAL WALL CLOCK TIME=          4.4 SECONDS, CPU UTILIZATION IS   100.00%

          --------------------------
               R-AM1 SCF CALCULATION
          --------------------------
     DENSITY MATRIX CONV=  1.00E-05

 ITER EX DEM     TOTAL ENERGY        E CHANGE  DENSITY CHANGE    DIIS ERROR
   1  0  0      -62.0866137405   -62.0866137405   0.002152787   0.000000000
   2  1  0      -62.0866180740    -0.0000043335   0.001129761   0.000000000
   3  2  0      -62.0866192557    -0.0000011818   0.000598192   0.000000000
   4  3  0      -62.0866195915    -0.0000003357   0.000318919   0.000000000
   5  4  0      -62.0866196889    -0.0000000974   0.000170968   0.000000000
   6  5  0      -62.0866197175    -0.0000000286   0.000092066   0.000000000
   7  6  0      -62.0866197260    -0.0000000085   0.000049761   0.000000000
   8  7  0      -62.0866197286    -0.0000000026   0.000026978   0.000000000
   9  8  0      -62.0866197294    -0.0000000008   0.000014663   0.000000000
  10  9  0      -62.0866197296    -0.0000000002   0.000007986   0.000000000

          -----------------
          DENSITY CONVERGED
          -----------------
     TIME TO FORM FOCK OPERATORS=       0.1 SECONDS (       0.0 SEC/ITER)
     TIME TO SOLVE SCF EQUATIONS=       0.0 SECONDS (       0.0 SEC/ITER)

 FINAL R-AM1 ENERGY IS      -62.0866197296 AFTER  10 ITERATIONS

 HEAT OF FORMATION IS      -182.98754 KCAL/MOL
 
  
   PCM ASC=      0.0394069864
   GCAVP  =      0.0000000000
   GDISP  =      0.0000000000
   GREP   =      0.0000000000
 ...... END OF RHF CALCULATION ......
 STEP CPU TIME =     0.09 TOTAL CPU TIME =          4.5 (      0.1 MIN)
 TOTAL WALL CLOCK TIME=          4.5 SECONDS, CPU UTILIZATION IS   100.00%
 
 .... DONE WITH PCM CONTRIBUTION TO GRADIENT ....
 STEP CPU TIME =     0.01 TOTAL CPU TIME =          4.5 (      0.1 MIN)
 TOTAL WALL CLOCK TIME=          4.5 SECONDS, CPU UTILIZATION IS   100.00%
 STEP CPU TIME =     0.00 TOTAL CPU TIME =          4.5 (      0.1 MIN)
 TOTAL WALL CLOCK TIME=          4.5 SECONDS, CPU UTILIZATION IS   100.00%

 UNITS ARE HARTREE/BOHR    E'X               E'Y               E'Z 
    1 CL              -0.000038604      -0.000028199       0.000007895
    2 C               -0.000050521      -0.000031440       0.000058405
    3 C               -0.000079153       0.000073639       0.000048696
    4 O                0.000082033       0.000010056      -0.000152076
    5 H               -0.000011927      -0.000070627      -0.000029687
    6 H                0.000032728      -0.000006854       0.000036472
    7 H               -0.000026661       0.000012547       0.000006494
    8 O                0.000031089       0.000005125       0.000018630
    9 H                0.000016354       0.000031790       0.000006153
   10 H                0.000034023       0.000014944      -0.000002761
   11 O               -0.000449126      -0.001106862      -0.000142876
   12 H                0.000186469       0.000378888      -0.000219797
   13 H                0.000273296       0.000716993       0.000364452
  $VIB   
          IVIB=   1 IATOM=  13 ICOORD=   1 E=      -62.0866197296
 -3.860365426E-05-2.819946596E-05 7.894996230E-06-5.052052172E-05-3.143954984E-05
  5.840459268E-05-7.915323656E-05 7.363928290E-05 4.869588029E-05 8.203321874E-05
  1.005639248E-05-1.520762422E-04-1.192673375E-05-7.062728079E-05-2.968664015E-05
  3.272796250E-05-6.854080618E-06 3.647202723E-05-2.666125886E-05 1.254727636E-05
  6.493789348E-06 3.108854471E-05 5.125074551E-06 1.863049449E-05 1.635389165E-05
  3.178983316E-05 6.152530159E-06 3.402335485E-05 1.494395923E-05-2.760633000E-06
 -4.491264867E-04-1.106862229E-03-1.428755646E-04 1.864690103E-04 3.788881134E-04
 -2.197969747E-04 2.732959091E-04 7.169926744E-04 3.644517442E-04
 -3.476939145E-01 3.416454198E+00 7.158064268E-01
1   ATOM 13
                                        -------------------
   COORD  2                             NUCLEAR COORDINATES
                                        -------------------
     VIB  1

                       ATOM             X              Y              Z

                 1  CL               2.880774       0.521130       1.761640
                 2  C                5.308278      -0.128388      -0.392496
                 3  C                5.534573       1.894072      -2.363140
                 4  O                6.680673       1.514710      -4.359031
                 5  H                4.890403      -2.008004      -1.264775
                 6  H                7.113080      -0.249671       0.708326
                 7  H                4.647970       3.750256      -1.926160
                 8  O                8.522985      -2.939601      -7.958883
                 9  H                7.915684      -1.508058      -7.010373
                10  H                7.863622      -2.652344      -9.631102
                11  O                5.916392       0.881425      -9.768107
                12  H                6.652308       1.565260     -11.285217
                13  H                6.239441       2.176117      -8.517505

 MOPAC ONE- AND TWO-ELECTRON INTEGRALS REQUIRE      2933 WORDS.
 ...... END OF ONE- AND TWO-ELECTRON INTEGRALS......
 STEP CPU TIME =     0.00 TOTAL CPU TIME =          4.5 (      0.1 MIN)
 TOTAL WALL CLOCK TIME=          4.5 SECONDS, CPU UTILIZATION IS   100.00%
 ...... END OF ONE-ELECTRON INTEGRALS ......
 STEP CPU TIME =     0.00 TOTAL CPU TIME =          4.5 (      0.1 MIN)
 TOTAL WALL CLOCK TIME=          4.5 SECONDS, CPU UTILIZATION IS   100.00%

     ----------------------------
     INPUT FOR TESSERA DEFINITION
     ----------------------------
     NTSALL  =        60     MTHALL  =         4
     MTHAUT  =         0     AUTFRE  =    2.0000
     NTSFRZ  =        60     KEEPSM  =         0
     AREAKP  =   10.0000     BONDRY  =    1.0000
     AREATL  =    0.0100

     SPHERE     INITS       METHOD
          1        60       FIXPVA
          2        60       FIXPVA
          3        60       FIXPVA
          4        60       FIXPVA
          5        60       FIXPVA
          6        60       FIXPVA
          7        60       FIXPVA
          8        60       FIXPVA
          9        60       FIXPVA
         10        60       FIXPVA
         11        60       FIXPVA
         12        60       FIXPVA
         13        60       FIXPVA

     ------------------------------
      FIXPVA TESSELLATION FOR PCM
         PEIFENG SU AND HUI LI
     UNIVERSITY OF NEBRASKA-LINCOLN
     ------------------------------


     INPUT FOR CAVITY DEFINITION 
     ---------------------------
   ATOM               COORDINATES                RADIUS       EPS
      1      1.5244      0.2758      0.9322      1.8100     78.3900
      2      2.8090     -0.0679     -0.2077      1.7000     78.3900
      3      2.9288      1.0023     -1.2505      1.7000     78.3900
      4      3.5353      0.8015     -2.3067      1.5000     78.3900
      5      2.5879     -1.0626     -0.6693      1.2000     78.3900
      6      3.7641     -0.1321      0.3748      1.2000     78.3900
      7      2.4596      1.9845     -1.0193      1.2000     78.3900
      8      4.5102     -1.5556     -4.2117      1.5000     78.3900
      9      4.1888     -0.7980     -3.7097      1.2000     78.3900
     10      4.1612     -1.4036     -5.0966      1.2000     78.3900
     11      3.1308      0.4664     -5.1691      1.5000     78.3900
     12      3.5202      0.8283     -5.9719      1.2000     78.3900
     13      3.3018      1.1516     -4.5073      1.2000     78.3900

 MEMORY USED TO GENERATE CAVITY=    262582


 TOTAL NUMBER OF SPHERES=    13
 SPHERE           CENTER  (X,Y,Z) (A)               RADIUS (A)      AREA(A*A)
     1   1.524440000   0.275770000   0.932220000   2.172000000  38.490629521
     2   2.809020000  -0.067940000  -0.207700000   2.040000000   3.657223925
     3   2.928770000   1.002300000  -1.250520000   2.040000000  12.181492001
     4   3.535260000   0.801550000  -2.306700000   1.800000000   8.964024835
     5   2.587890000  -1.062590000  -0.669290000   1.440000000   7.103966586
     6   3.764080000  -0.132120000   0.374830000   1.440000000   8.266216870
     7   2.459600000   1.984550000  -1.019280000   1.440000000   7.030749145
     8   4.510170000  -1.555570000  -4.211660000   1.800000000  20.269614417
     9   4.188800000  -0.798030000  -3.709730000   1.440000000   0.594061843
    10   4.161250000  -1.403560000  -5.096560000   1.440000000   4.865725829
    11   3.130820000   0.466430000  -5.169060000   1.800000000  12.412261860
    12   3.520250000   0.828300000  -5.971880000   1.440000000   9.842015084
    13   3.301770000   1.151551772  -4.507270000   1.440000000   4.864828480

 TOTAL NUMBER OF TESSERAE=     272
 SURFACE AREA=   138.54281040(A**2)    CAVITY VOLUME=    119.46223022 (A**3)
 STEP CPU TIME =     0.00 TOTAL CPU TIME =          4.5 (      0.1 MIN)
 TOTAL WALL CLOCK TIME=          4.5 SECONDS, CPU UTILIZATION IS   100.00%

          THE SOLUTE IS ENCLOSED IN ONE CAVITY
 DONE CHECKING SEPARATION.
 STEP CPU TIME =     0.00 TOTAL CPU TIME =          4.5 (      0.1 MIN)
 TOTAL WALL CLOCK TIME=          4.5 SECONDS, CPU UTILIZATION IS   100.00%
 
 ..... DONE SETTING UP PCM CALCULATION .....
 STEP CPU TIME =     0.00 TOTAL CPU TIME =          4.5 (      0.1 MIN)
 TOTAL WALL CLOCK TIME=          4.5 SECONDS, CPU UTILIZATION IS   100.00%

          --------------------------
               R-AM1 SCF CALCULATION
          --------------------------
     DENSITY MATRIX CONV=  1.00E-05

 ITER EX DEM     TOTAL ENERGY        E CHANGE  DENSITY CHANGE    DIIS ERROR
   1  0  0      -62.0866039865   -62.0866039865   0.001214231   0.000000000
   2  1  0      -62.0866079036    -0.0000039171   0.000560490   0.000000000
   3  2  0      -62.0866085385    -0.0000006349   0.000285381   0.000000000
   4  3  0      -62.0866086793    -0.0000001409   0.000145659   0.000000000
   5  4  0      -62.0866087143    -0.0000000350   0.000074794   0.000000000
   6  5  0      -62.0866087235    -0.0000000092   0.000038690   0.000000000
   7  6  0      -62.0866087259    -0.0000000025   0.000020170   0.000000000
   8  7  0      -62.0866087266    -0.0000000007   0.000011152   0.000000000
   9  8  0      -62.0866087269    -0.0000000002   0.000006296   0.000000000

          -----------------
          DENSITY CONVERGED
          -----------------
     TIME TO FORM FOCK OPERATORS=       0.1 SECONDS (       0.0 SEC/ITER)
     TIME TO SOLVE SCF EQUATIONS=       0.0 SECONDS (       0.0 SEC/ITER)

 FINAL R-AM1 ENERGY IS      -62.0866087269 AFTER   9 ITERATIONS

 HEAT OF FORMATION IS      -182.98063 KCAL/MOL
 
  
   PCM ASC=      0.0393754547
   GCAVP  =      0.0000000000
   GDISP  =      0.0000000000
   GREP   =      0.0000000000
 ...... END OF RHF CALCULATION ......
 STEP CPU TIME =     0.09 TOTAL CPU TIME =          4.6 (      0.1 MIN)
 TOTAL WALL CLOCK TIME=          4.6 SECONDS, CPU UTILIZATION IS   100.00%
 
 .... DONE WITH PCM CONTRIBUTION TO GRADIENT ....
 STEP CPU TIME =     0.00 TOTAL CPU TIME =          4.6 (      0.1 MIN)
 TOTAL WALL CLOCK TIME=          4.6 SECONDS, CPU UTILIZATION IS   100.00%
 STEP CPU TIME =     0.00 TOTAL CPU TIME =          4.6 (      0.1 MIN)
 TOTAL WALL CLOCK TIME=          4.6 SECONDS, CPU UTILIZATION IS   100.00%

 UNITS ARE HARTREE/BOHR    E'X               E'Y               E'Z 
    1 CL              -0.000037765      -0.000028048       0.000006932
    2 C               -0.000051530      -0.000030613       0.000057851
    3 C               -0.000082513       0.000072843       0.000056895
    4 O                0.000087142       0.000001047      -0.000144973
    5 H               -0.000011752      -0.000071120      -0.000030008
    6 H                0.000033460      -0.000006791       0.000036420
    7 H               -0.000026055       0.000013675       0.000006020
    8 O                0.000032668       0.000011883       0.000024319
    9 H                0.000030787      -0.000002993       0.000026270
   10 H                0.000027325       0.000013274      -0.000013535
   11 O               -0.000859062      -0.002780545      -0.001633740
   12 H                0.000208034       0.000392262      -0.000298518
   13 H                0.000649261       0.002415126       0.001906067
  $VIB   
          IVIB=   1 IATOM=  13 ICOORD=   2 E=      -62.0866087269
 -3.776494184E-05-2.804807664E-05 6.932475829E-06-5.153008764E-05-3.061258274E-05
  5.785119400E-05-8.251316796E-05 7.284270675E-05 5.689460489E-05 8.714192261E-05
  1.046898320E-06-1.449730464E-04-1.175212017E-05-7.112020160E-05-3.000756326E-05
  3.346038142E-05-6.791111642E-06 3.641978521E-05-2.605466173E-05 1.367493601E-05
  6.019828271E-06 3.266818915E-05 1.188284512E-05 2.431930204E-05 3.078692947E-05
 -2.992871412E-06 2.626989901E-05 2.732461710E-05 1.327382769E-05-1.353547916E-05
 -8.590619859E-04-2.780544636E-03-1.633739668E-03 2.080341128E-04 3.922622131E-04
 -2.985180845E-04 6.492608126E-04 2.415126053E-03 1.906066752E-03
 -3.575040649E-01 3.422731490E+00 7.134371382E-01
1   ATOM 13
                                        -------------------
   COORD  3                             NUCLEAR COORDINATES
                                        -------------------
     VIB  1

                       ATOM             X              Y              Z

                 1  CL               2.880774       0.521130       1.761640
                 2  C                5.308278      -0.128388      -0.392496
                 3  C                5.534573       1.894072      -2.363140
                 4  O                6.680673       1.514710      -4.359031
                 5  H                4.890403      -2.008004      -1.264775
                 6  H                7.113080      -0.249671       0.708326
                 7  H                4.647970       3.750256      -1.926160
                 8  O                8.522985      -2.939601      -7.958883
                 9  H                7.915684      -1.508058      -7.010373
                10  H                7.863622      -2.652344      -9.631102
                11  O                5.916392       0.881425      -9.768107
                12  H                6.652308       1.565260     -11.285217
                13  H                6.239441       2.166117      -8.507505

 MOPAC ONE- AND TWO-ELECTRON INTEGRALS REQUIRE      2933 WORDS.
 ...... END OF ONE- AND TWO-ELECTRON INTEGRALS......
 STEP CPU TIME =     0.00 TOTAL CPU TIME =          4.6 (      0.1 MIN)
 TOTAL WALL CLOCK TIME=          4.6 SECONDS, CPU UTILIZATION IS   100.00%
 ...... END OF ONE-ELECTRON INTEGRALS ......
 STEP CPU TIME =     0.00 TOTAL CPU TIME =          4.6 (      0.1 MIN)
 TOTAL WALL CLOCK TIME=          4.6 SECONDS, CPU UTILIZATION IS   100.00%

     ----------------------------
     INPUT FOR TESSERA DEFINITION
     ----------------------------
     NTSALL  =        60     MTHALL  =         4
     MTHAUT  =         0     AUTFRE  =    2.0000
     NTSFRZ  =        60     KEEPSM  =         0
     AREAKP  =   10.0000     BONDRY  =    1.0000
     AREATL  =    0.0100

     SPHERE     INITS       METHOD
          1        60       FIXPVA
          2        60       FIXPVA
          3        60       FIXPVA
          4        60       FIXPVA
          5        60       FIXPVA
          6        60       FIXPVA
          7        60       FIXPVA
          8        60       FIXPVA
          9        60       FIXPVA
         10        60       FIXPVA
         11        60       FIXPVA
         12        60       FIXPVA
         13        60       FIXPVA

     ------------------------------
      FIXPVA TESSELLATION FOR PCM
         PEIFENG SU AND HUI LI
     UNIVERSITY OF NEBRASKA-LINCOLN
     ------------------------------


     INPUT FOR CAVITY DEFINITION 
     ---------------------------
   ATOM               COORDINATES                RADIUS       EPS
      1      1.5244      0.2758      0.9322      1.8100     78.3900
      2      2.8090     -0.0679     -0.2077      1.7000     78.3900
      3      2.9288      1.0023     -1.2505      1.7000     78.3900
      4      3.5353      0.8015     -2.3067      1.5000     78.3900
      5      2.5879     -1.0626     -0.6693      1.2000     78.3900
      6      3.7641     -0.1321      0.3748      1.2000     78.3900
      7      2.4596      1.9845     -1.0193      1.2000     78.3900
      8      4.5102     -1.5556     -4.2117      1.5000     78.3900
      9      4.1888     -0.7980     -3.7097      1.2000     78.3900
     10      4.1612     -1.4036     -5.0966      1.2000     78.3900
     11      3.1308      0.4664     -5.1691      1.5000     78.3900
     12      3.5202      0.8283     -5.9719      1.2000     78.3900
     13      3.3018      1.1463     -4.5020      1.2000     78.3900

 MEMORY USED TO GENERATE CAVITY=    262582


 TOTAL NUMBER OF SPHERES=    13
 SPHERE           CENTER  (X,Y,Z) (A)               RADIUS (A)      AREA(A*A)
     1   1.524440000   0.275770000   0.932220000   2.172000000  38.490629521
     2   2.809020000  -0.067940000  -0.207700000   2.040000000   3.657223925
     3   2.928770000   1.002300000  -1.250520000   2.040000000  12.181638590
     4   3.535260000   0.801550000  -2.306700000   1.800000000   8.965519172
     5   2.587890000  -1.062590000  -0.669290000   1.440000000   7.103966586
     6   3.764080000  -0.132120000   0.374830000   1.440000000   8.266216870
     7   2.459600000   1.984550000  -1.019280000   1.440000000   7.030749145
     8   4.510170000  -1.555570000  -4.211660000   1.800000000  20.269614417
     9   4.188800000  -0.798030000  -3.709730000   1.440000000   0.593701518
    10   4.161250000  -1.403560000  -5.096560000   1.440000000   4.865725829
    11   3.130820000   0.466430000  -5.169060000   1.800000000  12.449722516
    12   3.520250000   0.828300000  -5.971880000   1.440000000   9.847765035
    13   3.301770000   1.146260000  -4.501978228   1.440000000   4.779448089

 TOTAL NUMBER OF TESSERAE=     272
 SURFACE AREA=   138.50192121(A**2)    CAVITY VOLUME=    119.36749979 (A**3)
 STEP CPU TIME =     0.00 TOTAL CPU TIME =          4.6 (      0.1 MIN)
 TOTAL WALL CLOCK TIME=          4.6 SECONDS, CPU UTILIZATION IS   100.00%

          THE SOLUTE IS ENCLOSED IN ONE CAVITY
 DONE CHECKING SEPARATION.
 STEP CPU TIME =     0.00 TOTAL CPU TIME =          4.6 (      0.1 MIN)
 TOTAL WALL CLOCK TIME=          4.6 SECONDS, CPU UTILIZATION IS   100.00%
 
 ..... DONE SETTING UP PCM CALCULATION .....
 STEP CPU TIME =     0.00 TOTAL CPU TIME =          4.6 (      0.1 MIN)
 TOTAL WALL CLOCK TIME=          4.6 SECONDS, CPU UTILIZATION IS   100.00%

          --------------------------
               R-AM1 SCF CALCULATION
          --------------------------
     DENSITY MATRIX CONV=  1.00E-05

 ITER EX DEM     TOTAL ENERGY        E CHANGE  DENSITY CHANGE    DIIS ERROR
   1  0  0      -62.0866041338   -62.0866041338   0.000884331   0.000000000
   2  1  0      -62.0866074659    -0.0000033321   0.000353776   0.000000000
   3  2  0      -62.0866078145    -0.0000003486   0.000168901   0.000000000
   4  3  0      -62.0866078739    -0.0000000594   0.000081133   0.000000000
   5  4  0      -62.0866078865    -0.0000000127   0.000039269   0.000000000
   6  5  0      -62.0866078895    -0.0000000030   0.000020046   0.000000000
   7  6  0      -62.0866078903    -0.0000000008   0.000010367   0.000000000
   8  7  0      -62.0866078904    -0.0000000001   0.000005422   0.000000000

          -----------------
          DENSITY CONVERGED
          -----------------
     TIME TO FORM FOCK OPERATORS=       0.1 SECONDS (       0.0 SEC/ITER)
     TIME TO SOLVE SCF EQUATIONS=       0.0 SECONDS (       0.0 SEC/ITER)

 FINAL R-AM1 ENERGY IS      -62.0866078904 AFTER   8 ITERATIONS

 HEAT OF FORMATION IS      -182.98011 KCAL/MOL
 
  
   PCM ASC=      0.0394045315
   GCAVP  =      0.0000000000
   GDISP  =      0.0000000000
   GREP   =      0.0000000000
 ...... END OF RHF CALCULATION ......
 STEP CPU TIME =     0.10 TOTAL CPU TIME =          4.7 (      0.1 MIN)
 TOTAL WALL CLOCK TIME=          4.7 SECONDS, CPU UTILIZATION IS   100.00%
 
 .... DONE WITH PCM CONTRIBUTION TO GRADIENT ....
 STEP CPU TIME =     0.01 TOTAL CPU TIME =          4.7 (      0.1 MIN)
 TOTAL WALL CLOCK TIME=          4.7 SECONDS, CPU UTILIZATION IS   100.00%
 STEP CPU TIME =     0.00 TOTAL CPU TIME =          4.7 (      0.1 MIN)
 TOTAL WALL CLOCK TIME=          4.7 SECONDS, CPU UTILIZATION IS   100.00%

 UNITS ARE HARTREE/BOHR    E'X               E'Y               E'Z 
    1 CL              -0.000039477      -0.000028511       0.000008895
    2 C               -0.000052064      -0.000032171       0.000058791
    3 C               -0.000067585       0.000068032       0.000036254
    4 O                0.000072821       0.000021638      -0.000179057
    5 H               -0.000011998      -0.000070200      -0.000029265
    6 H                0.000032000      -0.000006641       0.000036306
    7 H               -0.000026042       0.000011416       0.000007705
    8 O                0.000032207       0.000007471       0.000018617
    9 H                0.000017368       0.000024860       0.000014744
   10 H                0.000035596       0.000007964      -0.000003962
   11 O               -0.000385312      -0.001774921      -0.001706553
   12 H                0.000074902      -0.000152900      -0.000858592
   13 H                0.000317584       0.001923963       0.002596116
  $VIB   
          IVIB=   1 IATOM=  13 ICOORD=   3 E=      -62.0866078904
 -3.947711856E-05-2.851064249E-05 8.894700704E-06-5.206411489E-05-3.217063952E-05
  5.879072649E-05-6.758530719E-05 6.803188031E-05 3.625372179E-05 7.282117684E-05
  2.163826509E-05-1.790565643E-04-1.199764792E-05-7.020048000E-05-2.926491669E-05
  3.200002953E-05-6.640793928E-06 3.630640028E-05-2.604212911E-05 1.141574275E-05
  7.704912309E-06 3.220734729E-05 7.470984965E-06 1.861748162E-05 1.736761518E-05
  2.485979977E-05 1.474448410E-05 3.559584820E-05 7.964228462E-06-3.961842027E-06
 -3.853116011E-04-1.774920826E-03-1.706552885E-03 7.490177067E-05-1.529002702E-04
 -8.585921017E-04 3.175841311E-04 1.923962751E-03 2.596115882E-03
 -3.559613627E-01 3.416518891E+00 7.219815560E-01
1   ATOM  1
                                        -------------------
   COORD  1                             NUCLEAR COORDINATES
                                        -------------------
     VIB  2

                       ATOM             X              Y              Z

                 1  CL               2.870774       0.521130       1.761640
                 2  C                5.308278      -0.128388      -0.392496
                 3  C                5.534573       1.894072      -2.363140
                 4  O                6.680673       1.514710      -4.359031
                 5  H                4.890403      -2.008004      -1.264775
                 6  H                7.113080      -0.249671       0.708326
                 7  H                4.647970       3.750256      -1.926160
                 8  O                8.522985      -2.939601      -7.958883
                 9  H                7.915684      -1.508058      -7.010373
                10  H                7.863622      -2.652344      -9.631102
                11  O                5.916392       0.881425      -9.768107
                12  H                6.652308       1.565260     -11.285217
                13  H                6.239441       2.166117      -8.517505

 MOPAC ONE- AND TWO-ELECTRON INTEGRALS REQUIRE      2933 WORDS.
 ...... END OF ONE- AND TWO-ELECTRON INTEGRALS......
 STEP CPU TIME =     0.00 TOTAL CPU TIME =          4.7 (      0.1 MIN)
 TOTAL WALL CLOCK TIME=          4.7 SECONDS, CPU UTILIZATION IS   100.00%
 ...... END OF ONE-ELECTRON INTEGRALS ......
 STEP CPU TIME =     0.00 TOTAL CPU TIME =          4.7 (      0.1 MIN)
 TOTAL WALL CLOCK TIME=          4.7 SECONDS, CPU UTILIZATION IS   100.00%

     ----------------------------
     INPUT FOR TESSERA DEFINITION
     ----------------------------
     NTSALL  =        60     MTHALL  =         4
     MTHAUT  =         0     AUTFRE  =    2.0000
     NTSFRZ  =        60     KEEPSM  =         0
     AREAKP  =   10.0000     BONDRY  =    1.0000
     AREATL  =    0.0100

     SPHERE     INITS       METHOD
          1        60       FIXPVA
          2        60       FIXPVA
          3        60       FIXPVA
          4        60       FIXPVA
          5        60       FIXPVA
          6        60       FIXPVA
          7        60       FIXPVA
          8        60       FIXPVA
          9        60       FIXPVA
         10        60       FIXPVA
         11        60       FIXPVA
         12        60       FIXPVA
         13        60       FIXPVA

     ------------------------------
      FIXPVA TESSELLATION FOR PCM
         PEIFENG SU AND HUI LI
     UNIVERSITY OF NEBRASKA-LINCOLN
     ------------------------------


     INPUT FOR CAVITY DEFINITION 
     ---------------------------
   ATOM               COORDINATES                RADIUS       EPS
      1      1.5191      0.2758      0.9322      1.8100     78.3900
      2      2.8090     -0.0679     -0.2077      1.7000     78.3900
      3      2.9288      1.0023     -1.2505      1.7000     78.3900
      4      3.5353      0.8015     -2.3067      1.5000     78.3900
      5      2.5879     -1.0626     -0.6693      1.2000     78.3900
      6      3.7641     -0.1321      0.3748      1.2000     78.3900
      7      2.4596      1.9845     -1.0193      1.2000     78.3900
      8      4.5102     -1.5556     -4.2117      1.5000     78.3900
      9      4.1888     -0.7980     -3.7097      1.2000     78.3900
     10      4.1612     -1.4036     -5.0966      1.2000     78.3900
     11      3.1308      0.4664     -5.1691      1.5000     78.3900
     12      3.5202      0.8283     -5.9719      1.2000     78.3900
     13      3.3018      1.1463     -4.5073      1.2000     78.3900

 MEMORY USED TO GENERATE CAVITY=    262582


 TOTAL NUMBER OF SPHERES=    13
 SPHERE           CENTER  (X,Y,Z) (A)               RADIUS (A)      AREA(A*A)
     1   1.519148228   0.275770000   0.932220000   2.172000000  38.515529203
     2   2.809020000  -0.067940000  -0.207700000   2.040000000   3.668426759
     3   2.928770000   1.002300000  -1.250520000   2.040000000  12.181771764
     4   3.535260000   0.801550000  -2.306700000   1.800000000   8.978195913
     5   2.587890000  -1.062590000  -0.669290000   1.440000000   7.101253574
     6   3.764080000  -0.132120000   0.374830000   1.440000000   8.266707878
     7   2.459600000   1.984550000  -1.019280000   1.440000000   7.029523926
     8   4.510170000  -1.555570000  -4.211660000   1.800000000  20.269614417
     9   4.188800000  -0.798030000  -3.709730000   1.440000000   0.594081452
    10   4.161250000  -1.403560000  -5.096560000   1.440000000   4.865725829
    11   3.130820000   0.466430000  -5.169060000   1.800000000  12.439258795
    12   3.520250000   0.828300000  -5.971880000   1.440000000   9.845727228
    13   3.301770000   1.146260000  -4.507270000   1.440000000   4.778707327

 TOTAL NUMBER OF TESSERAE=     272
 SURFACE AREA=   138.53452407(A**2)    CAVITY VOLUME=    119.41998873 (A**3)
 STEP CPU TIME =     0.01 TOTAL CPU TIME =          4.7 (      0.1 MIN)
 TOTAL WALL CLOCK TIME=          4.7 SECONDS, CPU UTILIZATION IS   100.00%

          THE SOLUTE IS ENCLOSED IN ONE CAVITY
 DONE CHECKING SEPARATION.
 STEP CPU TIME =     0.00 TOTAL CPU TIME =          4.7 (      0.1 MIN)
 TOTAL WALL CLOCK TIME=          4.7 SECONDS, CPU UTILIZATION IS   100.00%
 
 ..... DONE SETTING UP PCM CALCULATION .....
 STEP CPU TIME =     0.00 TOTAL CPU TIME =          4.7 (      0.1 MIN)
 TOTAL WALL CLOCK TIME=          4.7 SECONDS, CPU UTILIZATION IS   100.00%

          --------------------------
               R-AM1 SCF CALCULATION
          --------------------------
     DENSITY MATRIX CONV=  1.00E-05

 ITER EX DEM     TOTAL ENERGY        E CHANGE  DENSITY CHANGE    DIIS ERROR
   1  0  0      -62.0866089459   -62.0866089459   0.001145827   0.000000000
   2  1  0      -62.0866122635    -0.0000033176   0.000621891   0.000000000
   3  2  0      -62.0866127700    -0.0000005065   0.000335806   0.000000000
   4  3  0      -62.0866128848    -0.0000001148   0.000183780   0.000000000
   5  4  0      -62.0866129160    -0.0000000311   0.000102267   0.000000000
   6  5  0      -62.0866129254    -0.0000000094   0.000057800   0.000000000
   7  6  0      -62.0866129285    -0.0000000031   0.000033108   0.000000000
   8  7  0      -62.0866129295    -0.0000000011   0.000019177   0.000000000
   9  8  0      -62.0866129299    -0.0000000004   0.000011210   0.000000000
  10  9  0      -62.0866129300    -0.0000000001   0.000006602   0.000000000

          -----------------
          DENSITY CONVERGED
          -----------------
     TIME TO FORM FOCK OPERATORS=       0.1 SECONDS (       0.0 SEC/ITER)
     TIME TO SOLVE SCF EQUATIONS=       0.0 SECONDS (       0.0 SEC/ITER)

 FINAL R-AM1 ENERGY IS      -62.0866129300 AFTER  10 ITERATIONS

 HEAT OF FORMATION IS      -182.98327 KCAL/MOL
 
  
   PCM ASC=      0.0394138830
   GCAVP  =      0.0000000000
   GDISP  =      0.0000000000
   GREP   =      0.0000000000
 ...... END OF RHF CALCULATION ......
 STEP CPU TIME =     0.12 TOTAL CPU TIME =          4.9 (      0.1 MIN)
 TOTAL WALL CLOCK TIME=          4.9 SECONDS, CPU UTILIZATION IS   100.00%
 
 .... DONE WITH PCM CONTRIBUTION TO GRADIENT ....
 STEP CPU TIME =     0.00 TOTAL CPU TIME =          4.9 (      0.1 MIN)
 TOTAL WALL CLOCK TIME=          4.9 SECONDS, CPU UTILIZATION IS   100.00%
 STEP CPU TIME =     0.00 TOTAL CPU TIME =          4.9 (      0.1 MIN)
 TOTAL WALL CLOCK TIME=          4.9 SECONDS, CPU UTILIZATION IS   100.00%

 UNITS ARE HARTREE/BOHR    E'X               E'Y               E'Z 
    1 CL              -0.001602274       0.000299194       0.001229914
    2 C                0.001051228      -0.000259039      -0.000660101
    3 C                0.000053560       0.000071802      -0.000138991
    4 O                0.000082460       0.000029219      -0.000177232
    5 H                0.000044641      -0.000118001      -0.000128357
    6 H                0.000308678      -0.000086883      -0.000152617
    7 H               -0.000028201       0.000020047       0.000002253
    8 O                0.000033539       0.000005881       0.000021024
    9 H                0.000018718       0.000021603       0.000014702
   10 H                0.000031565       0.000014233      -0.000007215
   11 O               -0.000135085      -0.000249117       0.000331091
   12 H                0.000126874       0.000182826      -0.000387657
   13 H                0.000014297       0.000068234       0.000053185
  $VIB   
          IVIB=   2 IATOM=   1 ICOORD=   1 E=      -62.0866129300
 -1.602273775E-03 2.991943421E-04 1.229914393E-03 1.051228176E-03-2.590392228E-04
 -6.601010891E-04 5.356041100E-05 7.180219017E-05-1.389905970E-04 8.245958201E-05
  2.921911122E-05-1.772319804E-04 4.464103819E-05-1.180009370E-04-1.283568255E-04
  3.086780831E-04-8.688260902E-05-1.526169823E-04-2.820118100E-05 2.004688493E-05
  2.253218027E-06 3.353888848E-05 5.880862293E-06 2.102420276E-05 1.871835344E-05
  2.160293209E-05 1.470197550E-05 3.156500210E-05 1.423269091E-05-7.214766698E-06
 -1.350853479E-04-2.491167034E-04 3.310912847E-04 1.268741366E-04 1.828261510E-04
 -3.876573974E-04 1.429663262E-05 6.823430758E-05 5.318456417E-05
 -3.549798260E-01 3.418684358E+00 7.179795421E-01
1   ATOM  1
                                        -------------------
   COORD  2                             NUCLEAR COORDINATES
                                        -------------------
     VIB  2

                       ATOM             X              Y              Z

                 1  CL               2.880774       0.511130       1.761640
                 2  C                5.308278      -0.128388      -0.392496
                 3  C                5.534573       1.894072      -2.363140
                 4  O                6.680673       1.514710      -4.359031
                 5  H                4.890403      -2.008004      -1.264775
                 6  H                7.113080      -0.249671       0.708326
                 7  H                4.647970       3.750256      -1.926160
                 8  O                8.522985      -2.939601      -7.958883
                 9  H                7.915684      -1.508058      -7.010373
                10  H                7.863622      -2.652344      -9.631102
                11  O                5.916392       0.881425      -9.768107
                12  H                6.652308       1.565260     -11.285217
                13  H                6.239441       2.166117      -8.517505

 MOPAC ONE- AND TWO-ELECTRON INTEGRALS REQUIRE      2933 WORDS.
 ...... END OF ONE- AND TWO-ELECTRON INTEGRALS......
 STEP CPU TIME =     0.00 TOTAL CPU TIME =          4.9 (      0.1 MIN)
 TOTAL WALL CLOCK TIME=          4.9 SECONDS, CPU UTILIZATION IS   100.00%
 ...... END OF ONE-ELECTRON INTEGRALS ......
 STEP CPU TIME =     0.00 TOTAL CPU TIME =          4.9 (      0.1 MIN)
 TOTAL WALL CLOCK TIME=          4.9 SECONDS, CPU UTILIZATION IS   100.00%

     ----------------------------
     INPUT FOR TESSERA DEFINITION
     ----------------------------
     NTSALL  =        60     MTHALL  =         4
     MTHAUT  =         0     AUTFRE  =    2.0000
     NTSFRZ  =        60     KEEPSM  =         0
     AREAKP  =   10.0000     BONDRY  =    1.0000
     AREATL  =    0.0100

     SPHERE     INITS       METHOD
          1        60       FIXPVA
          2        60       FIXPVA
          3        60       FIXPVA
          4        60       FIXPVA
          5        60       FIXPVA
          6        60       FIXPVA
          7        60       FIXPVA
          8        60       FIXPVA
          9        60       FIXPVA
         10        60       FIXPVA
         11        60       FIXPVA
         12        60       FIXPVA
         13        60       FIXPVA

     ------------------------------
      FIXPVA TESSELLATION FOR PCM
         PEIFENG SU AND HUI LI
     UNIVERSITY OF NEBRASKA-LINCOLN
     ------------------------------


     INPUT FOR CAVITY DEFINITION 
     ---------------------------
   ATOM               COORDINATES                RADIUS       EPS
      1      1.5244      0.2705      0.9322      1.8100     78.3900
      2      2.8090     -0.0679     -0.2077      1.7000     78.3900
      3      2.9288      1.0023     -1.2505      1.7000     78.3900
      4      3.5353      0.8015     -2.3067      1.5000     78.3900
      5      2.5879     -1.0626     -0.6693      1.2000     78.3900
      6      3.7641     -0.1321      0.3748      1.2000     78.3900
      7      2.4596      1.9845     -1.0193      1.2000     78.3900
      8      4.5102     -1.5556     -4.2117      1.5000     78.3900
      9      4.1888     -0.7980     -3.7097      1.2000     78.3900
     10      4.1612     -1.4036     -5.0966      1.2000     78.3900
     11      3.1308      0.4664     -5.1691      1.5000     78.3900
     12      3.5202      0.8283     -5.9719      1.2000     78.3900
     13      3.3018      1.1463     -4.5073      1.2000     78.3900

 MEMORY USED TO GENERATE CAVITY=    262582


 TOTAL NUMBER OF SPHERES=    13
 SPHERE           CENTER  (X,Y,Z) (A)               RADIUS (A)      AREA(A*A)
     1   1.524440000   0.270478228   0.932220000   2.172000000  38.507339139
     2   2.809020000  -0.067940000  -0.207700000   2.040000000   3.628826330
     3   2.928770000   1.002300000  -1.250520000   2.040000000  12.181771764
     4   3.535260000   0.801550000  -2.306700000   1.800000000   8.978195913
     5   2.587890000  -1.062590000  -0.669290000   1.440000000   7.089916058
     6   3.764080000  -0.132120000   0.374830000   1.440000000   8.266279996
     7   2.459600000   1.984550000  -1.019280000   1.440000000   7.038400008
     8   4.510170000  -1.555570000  -4.211660000   1.800000000  20.269614417
     9   4.188800000  -0.798030000  -3.709730000   1.440000000   0.594081452
    10   4.161250000  -1.403560000  -5.096560000   1.440000000   4.865725829
    11   3.130820000   0.466430000  -5.169060000   1.800000000  12.439258795
    12   3.520250000   0.828300000  -5.971880000   1.440000000   9.845727228
    13   3.301770000   1.146260000  -4.507270000   1.440000000   4.778707327

 TOTAL NUMBER OF TESSERAE=     272
 SURFACE AREA=   138.48384426(A**2)    CAVITY VOLUME=    119.38296490 (A**3)
 STEP CPU TIME =     0.00 TOTAL CPU TIME =          4.9 (      0.1 MIN)
 TOTAL WALL CLOCK TIME=          4.9 SECONDS, CPU UTILIZATION IS   100.00%

          THE SOLUTE IS ENCLOSED IN ONE CAVITY
 DONE CHECKING SEPARATION.
 STEP CPU TIME =     0.00 TOTAL CPU TIME =          4.9 (      0.1 MIN)
 TOTAL WALL CLOCK TIME=          4.9 SECONDS, CPU UTILIZATION IS   100.00%
 
 ..... DONE SETTING UP PCM CALCULATION .....
 STEP CPU TIME =     0.00 TOTAL CPU TIME =          4.9 (      0.1 MIN)
 TOTAL WALL CLOCK TIME=          4.9 SECONDS, CPU UTILIZATION IS   100.00%

          --------------------------
               R-AM1 SCF CALCULATION
          --------------------------
     DENSITY MATRIX CONV=  1.00E-05

 ITER EX DEM     TOTAL ENERGY        E CHANGE  DENSITY CHANGE    DIIS ERROR
   1  0  0      -62.0866153657   -62.0866153657   0.001041523   0.000000000
   2  1  0      -62.0866181914    -0.0000028257   0.000563889   0.000000000
   3  2  0      -62.0866188656    -0.0000006741   0.000314644   0.000000000
   4  3  0      -62.0866190552    -0.0000001897   0.000179079   0.000000000
   5  4  0      -62.0866191135    -0.0000000582   0.000103344   0.000000000
   6  5  0      -62.0866191323    -0.0000000188   0.000060238   0.000000000
   7  6  0      -62.0866191386    -0.0000000064   0.000035371   0.000000000
   8  7  0      -62.0866191408    -0.0000000022   0.000020884   0.000000000
   9  8  0      -62.0866191416    -0.0000000008   0.000012382   0.000000000
  10  9  0      -62.0866191418    -0.0000000003   0.000007364   0.000000000

          -----------------
          DENSITY CONVERGED
          -----------------
     TIME TO FORM FOCK OPERATORS=       0.1 SECONDS (       0.0 SEC/ITER)
     TIME TO SOLVE SCF EQUATIONS=       0.0 SECONDS (       0.0 SEC/ITER)

 FINAL R-AM1 ENERGY IS      -62.0866191418 AFTER  10 ITERATIONS

 HEAT OF FORMATION IS      -182.98717 KCAL/MOL
 
  
   PCM ASC=      0.0394104901
   GCAVP  =      0.0000000000
   GDISP  =      0.0000000000
   GREP   =      0.0000000000
 ...... END OF RHF CALCULATION ......
 STEP CPU TIME =     0.12 TOTAL CPU TIME =          5.0 (      0.1 MIN)
 TOTAL WALL CLOCK TIME=          5.0 SECONDS, CPU UTILIZATION IS   100.00%
 
 .... DONE WITH PCM CONTRIBUTION TO GRADIENT ....
 STEP CPU TIME =     0.02 TOTAL CPU TIME =          5.0 (      0.1 MIN)
 TOTAL WALL CLOCK TIME=          5.0 SECONDS, CPU UTILIZATION IS   100.00%
 STEP CPU TIME =     0.00 TOTAL CPU TIME =          5.0 (      0.1 MIN)
 TOTAL WALL CLOCK TIME=          5.0 SECONDS, CPU UTILIZATION IS   100.00%

 UNITS ARE HARTREE/BOHR    E'X               E'Y               E'Z 
    1 CL               0.000291755      -0.000373815      -0.000253145
    2 C               -0.000290969       0.000308962       0.000285175
    3 C                0.000035363       0.000032722      -0.000064127
    4 O                0.000086321       0.000018555      -0.000185884
    5 H               -0.000171400      -0.000020211       0.000130633
    6 H               -0.000017402      -0.000034475       0.000066671
    7 H               -0.000024371       0.000024869      -0.000003877
    8 O                0.000033640       0.000006069       0.000021460
    9 H                0.000019494       0.000020825       0.000014121
   10 H                0.000031494       0.000014159      -0.000007340
   11 O               -0.000134859      -0.000249189       0.000331686
   12 H                0.000126856       0.000182825      -0.000387770
   13 H                0.000014078       0.000068704       0.000052398
  $VIB   
          IVIB=   2 IATOM=   1 ICOORD=   2 E=      -62.0866191418
  2.917554234E-04-3.738154848E-04-2.531449517E-04-2.909693886E-04 3.089615977E-04
  2.851754405E-04 3.536276732E-05 3.272224547E-05-6.412743994E-05 8.632102168E-05
  1.855504036E-05-1.858842163E-04-1.714002095E-04-2.021076670E-05 1.306326103E-04
 -1.740232843E-05-3.447462482E-05 6.667113664E-05-2.437116519E-05 2.486946513E-05
 -3.877144723E-06 3.364026996E-05 6.068883295E-06 2.145987801E-05 1.949440162E-05
  2.082484336E-05 1.412067130E-05 3.149379241E-05 1.415885986E-05-7.340188880E-06
 -1.348585823E-04-2.491885589E-04 3.316862655E-04 1.268564955E-04 1.828247722E-04
 -3.877702637E-04 1.407750203E-05 6.870372787E-05 5.239820293E-05
 -3.557714629E-01 3.420805521E+00 7.165368884E-01
1   ATOM  1
                                        -------------------
   COORD  3                             NUCLEAR COORDINATES
                                        -------------------
     VIB  2

                       ATOM             X              Y              Z

                 1  CL               2.880774       0.521130       1.751640
                 2  C                5.308278      -0.128388      -0.392496
                 3  C                5.534573       1.894072      -2.363140
                 4  O                6.680673       1.514710      -4.359031
                 5  H                4.890403      -2.008004      -1.264775
                 6  H                7.113080      -0.249671       0.708326
                 7  H                4.647970       3.750256      -1.926160
                 8  O                8.522985      -2.939601      -7.958883
                 9  H                7.915684      -1.508058      -7.010373
                10  H                7.863622      -2.652344      -9.631102
                11  O                5.916392       0.881425      -9.768107
                12  H                6.652308       1.565260     -11.285217
                13  H                6.239441       2.166117      -8.517505

 MOPAC ONE- AND TWO-ELECTRON INTEGRALS REQUIRE      2933 WORDS.
 ...... END OF ONE- AND TWO-ELECTRON INTEGRALS......
 STEP CPU TIME =     0.00 TOTAL CPU TIME =          5.0 (      0.1 MIN)
 TOTAL WALL CLOCK TIME=          5.0 SECONDS, CPU UTILIZATION IS   100.00%
 ...... END OF ONE-ELECTRON INTEGRALS ......
 STEP CPU TIME =     0.00 TOTAL CPU TIME =          5.0 (      0.1 MIN)
 TOTAL WALL CLOCK TIME=          5.0 SECONDS, CPU UTILIZATION IS   100.00%

     ----------------------------
     INPUT FOR TESSERA DEFINITION
     ----------------------------
     NTSALL  =        60     MTHALL  =         4
     MTHAUT  =         0     AUTFRE  =    2.0000
     NTSFRZ  =        60     KEEPSM  =         0
     AREAKP  =   10.0000     BONDRY  =    1.0000
     AREATL  =    0.0100

     SPHERE     INITS       METHOD
          1        60       FIXPVA
          2        60       FIXPVA
          3        60       FIXPVA
          4        60       FIXPVA
          5        60       FIXPVA
          6        60       FIXPVA
          7        60       FIXPVA
          8        60       FIXPVA
          9        60       FIXPVA
         10        60       FIXPVA
         11        60       FIXPVA
         12        60       FIXPVA
         13        60       FIXPVA

     ------------------------------
      FIXPVA TESSELLATION FOR PCM
         PEIFENG SU AND HUI LI
     UNIVERSITY OF NEBRASKA-LINCOLN
     ------------------------------


     INPUT FOR CAVITY DEFINITION 
     ---------------------------
   ATOM               COORDINATES                RADIUS       EPS
      1      1.5244      0.2758      0.9269      1.8100     78.3900
      2      2.8090     -0.0679     -0.2077      1.7000     78.3900
      3      2.9288      1.0023     -1.2505      1.7000     78.3900
      4      3.5353      0.8015     -2.3067      1.5000     78.3900
      5      2.5879     -1.0626     -0.6693      1.2000     78.3900
      6      3.7641     -0.1321      0.3748      1.2000     78.3900
      7      2.4596      1.9845     -1.0193      1.2000     78.3900
      8      4.5102     -1.5556     -4.2117      1.5000     78.3900
      9      4.1888     -0.7980     -3.7097      1.2000     78.3900
     10      4.1612     -1.4036     -5.0966      1.2000     78.3900
     11      3.1308      0.4664     -5.1691      1.5000     78.3900
     12      3.5202      0.8283     -5.9719      1.2000     78.3900
     13      3.3018      1.1463     -4.5073      1.2000     78.3900

 MEMORY USED TO GENERATE CAVITY=    262582


 TOTAL NUMBER OF SPHERES=    13
 SPHERE           CENTER  (X,Y,Z) (A)               RADIUS (A)      AREA(A*A)
     1   1.524440000   0.275770000   0.926928228   2.172000000  38.483164319
     2   2.809020000  -0.067940000  -0.207700000   2.040000000   3.657908627
     3   2.928770000   1.002300000  -1.250520000   2.040000000  12.181771764
     4   3.535260000   0.801550000  -2.306700000   1.800000000   8.978195913
     5   2.587890000  -1.062590000  -0.669290000   1.440000000   7.094466780
     6   3.764080000  -0.132120000   0.374830000   1.440000000   8.266751392
     7   2.459600000   1.984550000  -1.019280000   1.440000000   7.030384190
     8   4.510170000  -1.555570000  -4.211660000   1.800000000  20.269614417
     9   4.188800000  -0.798030000  -3.709730000   1.440000000   0.594081452
    10   4.161250000  -1.403560000  -5.096560000   1.440000000   4.865725829
    11   3.130820000   0.466430000  -5.169060000   1.800000000  12.439258795
    12   3.520250000   0.828300000  -5.971880000   1.440000000   9.845727228
    13   3.301770000   1.146260000  -4.507270000   1.440000000   4.778707327

 TOTAL NUMBER OF TESSERAE=     272
 SURFACE AREA=   138.48575803(A**2)    CAVITY VOLUME=    119.36891716 (A**3)
 STEP CPU TIME =     0.00 TOTAL CPU TIME =          5.0 (      0.1 MIN)
 TOTAL WALL CLOCK TIME=          5.0 SECONDS, CPU UTILIZATION IS   100.00%

          THE SOLUTE IS ENCLOSED IN ONE CAVITY
 DONE CHECKING SEPARATION.
 STEP CPU TIME =     0.00 TOTAL CPU TIME =          5.0 (      0.1 MIN)
 TOTAL WALL CLOCK TIME=          5.0 SECONDS, CPU UTILIZATION IS   100.00%
 
 ..... DONE SETTING UP PCM CALCULATION .....
 STEP CPU TIME =     0.00 TOTAL CPU TIME =          5.0 (      0.1 MIN)
 TOTAL WALL CLOCK TIME=          5.0 SECONDS, CPU UTILIZATION IS   100.00%

          --------------------------
               R-AM1 SCF CALCULATION
          --------------------------
     DENSITY MATRIX CONV=  1.00E-05

 ITER EX DEM     TOTAL ENERGY        E CHANGE  DENSITY CHANGE    DIIS ERROR
   1  0  0      -62.0866105237   -62.0866105237   0.001266622   0.000000000
   2  1  0      -62.0866137304    -0.0000032067   0.000690559   0.000000000
   3  2  0      -62.0866142669    -0.0000005365   0.000375016   0.000000000
   4  3  0      -62.0866143976    -0.0000001308   0.000206503   0.000000000
   5  4  0      -62.0866144353    -0.0000000376   0.000115626   0.000000000
   6  5  0      -62.0866144471    -0.0000000118   0.000065737   0.000000000
   7  6  0      -62.0866144509    -0.0000000039   0.000037856   0.000000000
   8  7  0      -62.0866144523    -0.0000000014   0.000022029   0.000000000
   9  8  0      -62.0866144528    -0.0000000005   0.000012926   0.000000000
  10  9  0      -62.0866144529    -0.0000000001   0.000007635   0.000000000

          -----------------
          DENSITY CONVERGED
          -----------------
     TIME TO FORM FOCK OPERATORS=       0.1 SECONDS (       0.0 SEC/ITER)
     TIME TO SOLVE SCF EQUATIONS=       0.0 SECONDS (       0.0 SEC/ITER)

 FINAL R-AM1 ENERGY IS      -62.0866144529 AFTER  10 ITERATIONS

 HEAT OF FORMATION IS      -182.98422 KCAL/MOL
 
  
   PCM ASC=      0.0393914289
   GCAVP  =      0.0000000000
   GDISP  =      0.0000000000
   GREP   =      0.0000000000
 ...... END OF RHF CALCULATION ......
 STEP CPU TIME =     0.14 TOTAL CPU TIME =          5.1 (      0.1 MIN)
 TOTAL WALL CLOCK TIME=          5.1 SECONDS, CPU UTILIZATION IS   100.00%
 
 .... DONE WITH PCM CONTRIBUTION TO GRADIENT ....
 STEP CPU TIME =     0.00 TOTAL CPU TIME =          5.1 (      0.1 MIN)
 TOTAL WALL CLOCK TIME=          5.1 SECONDS, CPU UTILIZATION IS   100.00%
 STEP CPU TIME =     0.00 TOTAL CPU TIME =          5.1 (      0.1 MIN)
 TOTAL WALL CLOCK TIME=          5.1 SECONDS, CPU UTILIZATION IS   100.00%

 UNITS ARE HARTREE/BOHR    E'X               E'Y               E'Z 
    1 CL               0.001208328      -0.000291738      -0.001349166
    2 C               -0.000797726       0.000186433       0.000951598
    3 C               -0.000367415       0.000072005       0.000329097
    4 O                0.000083868      -0.000032446      -0.000105407
    5 H               -0.000185272       0.000020349       0.000107058
    6 H               -0.000008960       0.000002418       0.000027101
    7 H               -0.000023975      -0.000000314       0.000016341
    8 O                0.000033655       0.000006266       0.000022012
    9 H                0.000020104       0.000019951       0.000013502
   10 H                0.000031437       0.000014078      -0.000007563
   11 O               -0.000134495      -0.000249248       0.000332757
   12 H                0.000126836       0.000182884      -0.000387975
   13 H                0.000013615       0.000069362       0.000050645
  $VIB   
          IVIB=   2 IATOM=   1 ICOORD=   3 E=      -62.0866144529
  1.208327908E-03-2.917380701E-04-1.349166499E-03-7.977260105E-04 1.864326526E-04
  9.515981243E-04-3.674151831E-04 7.200495480E-05 3.290966832E-04 8.386820036E-05
 -3.244577474E-05-1.054069100E-04-1.852722914E-04 2.034864089E-05 1.070583510E-04
 -8.959514693E-06 2.418339215E-06 2.710065229E-05-2.397465973E-05-3.140019060E-07
  1.634063097E-05 3.365524467E-05 6.265816442E-06 2.201227436E-05 2.010407864E-05
  1.995117970E-05 1.350212011E-05 3.143678133E-05 1.407772995E-05-7.563439375E-06
 -1.344954438E-04-2.492482127E-04 3.327572474E-04 1.268360722E-04 1.828844483E-04
 -3.879746708E-04 1.361481831E-05 6.936229754E-05 5.064543541E-05
 -3.544872893E-01 3.418009596E+00 7.175682750E-01
1   ATOM  2
                                        -------------------
   COORD  1                             NUCLEAR COORDINATES
                                        -------------------
     VIB  2

                       ATOM             X              Y              Z

                 1  CL               2.880774       0.521130       1.761640
                 2  C                5.298278      -0.128388      -0.392496
                 3  C                5.534573       1.894072      -2.363140
                 4  O                6.680673       1.514710      -4.359031
                 5  H                4.890403      -2.008004      -1.264775
                 6  H                7.113080      -0.249671       0.708326
                 7  H                4.647970       3.750256      -1.926160
                 8  O                8.522985      -2.939601      -7.958883
                 9  H                7.915684      -1.508058      -7.010373
                10  H                7.863622      -2.652344      -9.631102
                11  O                5.916392       0.881425      -9.768107
                12  H                6.652308       1.565260     -11.285217
                13  H                6.239441       2.166117      -8.517505

 MOPAC ONE- AND TWO-ELECTRON INTEGRALS REQUIRE      2933 WORDS.
 ...... END OF ONE- AND TWO-ELECTRON INTEGRALS......
 STEP CPU TIME =     0.00 TOTAL CPU TIME =          5.1 (      0.1 MIN)
 TOTAL WALL CLOCK TIME=          5.1 SECONDS, CPU UTILIZATION IS   100.00%
 ...... END OF ONE-ELECTRON INTEGRALS ......
 STEP CPU TIME =     0.00 TOTAL CPU TIME =          5.1 (      0.1 MIN)
 TOTAL WALL CLOCK TIME=          5.1 SECONDS, CPU UTILIZATION IS   100.00%

     ----------------------------
     INPUT FOR TESSERA DEFINITION
     ----------------------------
     NTSALL  =        60     MTHALL  =         4
     MTHAUT  =         0     AUTFRE  =    2.0000
     NTSFRZ  =        60     KEEPSM  =         0
     AREAKP  =   10.0000     BONDRY  =    1.0000
     AREATL  =    0.0100

     SPHERE     INITS       METHOD
          1        60       FIXPVA
          2        60       FIXPVA
          3        60       FIXPVA
          4        60       FIXPVA
          5        60       FIXPVA
          6        60       FIXPVA
          7        60       FIXPVA
          8        60       FIXPVA
          9        60       FIXPVA
         10        60       FIXPVA
         11        60       FIXPVA
         12        60       FIXPVA
         13        60       FIXPVA

     ------------------------------
      FIXPVA TESSELLATION FOR PCM
         PEIFENG SU AND HUI LI
     UNIVERSITY OF NEBRASKA-LINCOLN
     ------------------------------


     INPUT FOR CAVITY DEFINITION 
     ---------------------------
   ATOM               COORDINATES                RADIUS       EPS
      1      1.5244      0.2758      0.9322      1.8100     78.3900
      2      2.8037     -0.0679     -0.2077      1.7000     78.3900
      3      2.9288      1.0023     -1.2505      1.7000     78.3900
      4      3.5353      0.8015     -2.3067      1.5000     78.3900
      5      2.5879     -1.0626     -0.6693      1.2000     78.3900
      6      3.7641     -0.1321      0.3748      1.2000     78.3900
      7      2.4596      1.9845     -1.0193      1.2000     78.3900
      8      4.5102     -1.5556     -4.2117      1.5000     78.3900
      9      4.1888     -0.7980     -3.7097      1.2000     78.3900
     10      4.1612     -1.4036     -5.0966      1.2000     78.3900
     11      3.1308      0.4664     -5.1691      1.5000     78.3900
     12      3.5202      0.8283     -5.9719      1.2000     78.3900
     13      3.3018      1.1463     -4.5073      1.2000     78.3900

 MEMORY USED TO GENERATE CAVITY=    262582


 TOTAL NUMBER OF SPHERES=    13
 SPHERE           CENTER  (X,Y,Z) (A)               RADIUS (A)      AREA(A*A)
     1   1.524440000   0.275770000   0.932220000   2.172000000  38.489950408
     2   2.803728228  -0.067940000  -0.207700000   2.040000000   3.697152036
     3   2.928770000   1.002300000  -1.250520000   2.040000000  12.181771764
     4   3.535260000   0.801550000  -2.306700000   1.800000000   8.979890671
     5   2.587890000  -1.062590000  -0.669290000   1.440000000   7.083989594
     6   3.764080000  -0.132120000   0.374830000   1.440000000   8.283783360
     7   2.459600000   1.984550000  -1.019280000   1.440000000   7.030733889
     8   4.510170000  -1.555570000  -4.211660000   1.800000000  20.270013914
     9   4.188800000  -0.798030000  -3.709730000   1.440000000   0.594442979
    10   4.161250000  -1.403560000  -5.096560000   1.440000000   4.865725829
    11   3.130820000   0.466430000  -5.169060000   1.800000000  12.439258795
    12   3.520250000   0.828300000  -5.971880000   1.440000000   9.845727228
    13   3.301770000   1.146260000  -4.507270000   1.440000000   4.778707327

 TOTAL NUMBER OF TESSERAE=     272
 SURFACE AREA=   138.54114779(A**2)    CAVITY VOLUME=    119.40261942 (A**3)
 STEP CPU TIME =     0.00 TOTAL CPU TIME =          5.2 (      0.1 MIN)
 TOTAL WALL CLOCK TIME=          5.2 SECONDS, CPU UTILIZATION IS   100.00%

          THE SOLUTE IS ENCLOSED IN ONE CAVITY
 DONE CHECKING SEPARATION.
 STEP CPU TIME =     0.00 TOTAL CPU TIME =          5.2 (      0.1 MIN)
 TOTAL WALL CLOCK TIME=          5.2 SECONDS, CPU UTILIZATION IS   100.00%
 
 ..... DONE SETTING UP PCM CALCULATION .....
 STEP CPU TIME =     0.00 TOTAL CPU TIME =          5.2 (      0.1 MIN)
 TOTAL WALL CLOCK TIME=          5.2 SECONDS, CPU UTILIZATION IS   100.00%

          --------------------------
               R-AM1 SCF CALCULATION
          --------------------------
     DENSITY MATRIX CONV=  1.00E-05

 ITER EX DEM     TOTAL ENERGY        E CHANGE  DENSITY CHANGE    DIIS ERROR
   1  0  0      -62.0865857179   -62.0865857179   0.001583925   0.000000000
   2  1  0      -62.0865974383    -0.0000117204   0.000756871   0.000000000
   3  2  0      -62.0865990621    -0.0000016238   0.000402586   0.000000000
   4  3  0      -62.0865994156    -0.0000003535   0.000217042   0.000000000
   5  0  0      -62.0865995223    -0.0000001068   0.000418457   0.000000000
   6  1  0      -62.0865995956    -0.0000000732   0.000017031   0.000000000
   7  2  0      -62.0865995965    -0.0000000009   0.000012359   0.000000000
   8  3  0      -62.0865995968    -0.0000000003   0.000008982   0.000000000

          -----------------
          DENSITY CONVERGED
          -----------------
     TIME TO FORM FOCK OPERATORS=       0.1 SECONDS (       0.0 SEC/ITER)
     TIME TO SOLVE SCF EQUATIONS=       0.0 SECONDS (       0.0 SEC/ITER)

 FINAL R-AM1 ENERGY IS      -62.0865995968 AFTER   8 ITERATIONS

 HEAT OF FORMATION IS      -182.97490 KCAL/MOL
 
  
   PCM ASC=      0.0393842077
   GCAVP  =      0.0000000000
   GDISP  =      0.0000000000
   GREP   =      0.0000000000
 ...... END OF RHF CALCULATION ......
 STEP CPU TIME =     0.08 TOTAL CPU TIME =          5.2 (      0.1 MIN)
 TOTAL WALL CLOCK TIME=          5.2 SECONDS, CPU UTILIZATION IS   100.00%
 
 .... DONE WITH PCM CONTRIBUTION TO GRADIENT ....
 STEP CPU TIME =     0.01 TOTAL CPU TIME =          5.2 (      0.1 MIN)
 TOTAL WALL CLOCK TIME=          5.2 SECONDS, CPU UTILIZATION IS   100.00%
 STEP CPU TIME =     0.00 TOTAL CPU TIME =          5.2 (      0.1 MIN)
 TOTAL WALL CLOCK TIME=          5.2 SECONDS, CPU UTILIZATION IS   100.00%

 UNITS ARE HARTREE/BOHR    E'X               E'Y               E'Z 
    1 CL               0.001080134      -0.000271808      -0.000741338
    2 C               -0.004255164      -0.000316545      -0.000200358
    3 C                0.000639164       0.000248176      -0.000018669
    4 O                0.000022981       0.000124561      -0.000451543
    5 H                0.000437286       0.000392712       0.000203723
    6 H                0.002149838      -0.000119640       0.001181216
    7 H               -0.000165800      -0.000099925       0.000003151
    8 O                0.000033639       0.000006481       0.000022203
    9 H                0.000020599       0.000019283       0.000012176
   10 H                0.000031341       0.000014198      -0.000007677
   11 O               -0.000134422      -0.000249648       0.000331667
   12 H                0.000126741       0.000182716      -0.000387812
   13 H                0.000013664       0.000069439       0.000053261
  $VIB   
          IVIB=   2 IATOM=   2 ICOORD=   1 E=      -62.0865995968
  1.080134200E-03-2.718084304E-04-7.413378128E-04-4.255164487E-03-3.165447641E-04
 -2.003584179E-04 6.391635302E-04 2.481758030E-04-1.866938454E-05 2.298124310E-05
  1.245609059E-04-4.515434166E-04 4.372860051E-04 3.927120965E-04 2.037232053E-04
  2.149838386E-03-1.196404759E-04 1.181215902E-03-1.658004254E-04-9.992502158E-05
  3.151355816E-06 3.363872860E-05 6.480981786E-06 2.220283691E-05 2.059874881E-05
  1.928332514E-05 1.217587440E-05 3.134128767E-05 1.419841120E-05-7.676503924E-06
 -1.344216742E-04-2.496477025E-04 3.316668001E-04 1.267408098E-04 1.827159107E-04
 -3.878115670E-04 1.366364792E-05 6.943896031E-05 5.326112880E-05
 -3.486368975E-01 3.417862897E+00 7.137647840E-01
1   ATOM  2
                                        -------------------
   COORD  2                             NUCLEAR COORDINATES
                                        -------------------
     VIB  2

                       ATOM             X              Y              Z

                 1  CL               2.880774       0.521130       1.761640
                 2  C                5.308278      -0.138388      -0.392496
                 3  C                5.534573       1.894072      -2.363140
                 4  O                6.680673       1.514710      -4.359031
                 5  H                4.890403      -2.008004      -1.264775
                 6  H                7.113080      -0.249671       0.708326
                 7  H                4.647970       3.750256      -1.926160
                 8  O                8.522985      -2.939601      -7.958883
                 9  H                7.915684      -1.508058      -7.010373
                10  H                7.863622      -2.652344      -9.631102
                11  O                5.916392       0.881425      -9.768107
                12  H                6.652308       1.565260     -11.285217
                13  H                6.239441       2.166117      -8.517505

 MOPAC ONE- AND TWO-ELECTRON INTEGRALS REQUIRE      2933 WORDS.
 ...... END OF ONE- AND TWO-ELECTRON INTEGRALS......
 STEP CPU TIME =     0.00 TOTAL CPU TIME =          5.2 (      0.1 MIN)
 TOTAL WALL CLOCK TIME=          5.2 SECONDS, CPU UTILIZATION IS   100.00%
 ...... END OF ONE-ELECTRON INTEGRALS ......
 STEP CPU TIME =     0.00 TOTAL CPU TIME =          5.2 (      0.1 MIN)
 TOTAL WALL CLOCK TIME=          5.2 SECONDS, CPU UTILIZATION IS   100.00%

     ----------------------------
     INPUT FOR TESSERA DEFINITION
     ----------------------------
     NTSALL  =        60     MTHALL  =         4
     MTHAUT  =         0     AUTFRE  =    2.0000
     NTSFRZ  =        60     KEEPSM  =         0
     AREAKP  =   10.0000     BONDRY  =    1.0000
     AREATL  =    0.0100

     SPHERE     INITS       METHOD
          1        60       FIXPVA
          2        60       FIXPVA
          3        60       FIXPVA
          4        60       FIXPVA
          5        60       FIXPVA
          6        60       FIXPVA
          7        60       FIXPVA
          8        60       FIXPVA
          9        60       FIXPVA
         10        60       FIXPVA
         11        60       FIXPVA
         12        60       FIXPVA
         13        60       FIXPVA

     ------------------------------
      FIXPVA TESSELLATION FOR PCM
         PEIFENG SU AND HUI LI
     UNIVERSITY OF NEBRASKA-LINCOLN
     ------------------------------


     INPUT FOR CAVITY DEFINITION 
     ---------------------------
   ATOM               COORDINATES                RADIUS       EPS
      1      1.5244      0.2758      0.9322      1.8100     78.3900
      2      2.8090     -0.0732     -0.2077      1.7000     78.3900
      3      2.9288      1.0023     -1.2505      1.7000     78.3900
      4      3.5353      0.8015     -2.3067      1.5000     78.3900
      5      2.5879     -1.0626     -0.6693      1.2000     78.3900
      6      3.7641     -0.1321      0.3748      1.2000     78.3900
      7      2.4596      1.9845     -1.0193      1.2000     78.3900
      8      4.5102     -1.5556     -4.2117      1.5000     78.3900
      9      4.1888     -0.7980     -3.7097      1.2000     78.3900
     10      4.1612     -1.4036     -5.0966      1.2000     78.3900
     11      3.1308      0.4664     -5.1691      1.5000     78.3900
     12      3.5202      0.8283     -5.9719      1.2000     78.3900
     13      3.3018      1.1463     -4.5073      1.2000     78.3900

 MEMORY USED TO GENERATE CAVITY=    262582


 TOTAL NUMBER OF SPHERES=    13
 SPHERE           CENTER  (X,Y,Z) (A)               RADIUS (A)      AREA(A*A)
     1   1.524440000   0.275770000   0.932220000   2.172000000  38.483843395
     2   2.809020000  -0.073231772  -0.207700000   2.040000000   3.674644189
     3   2.928770000   1.002300000  -1.250520000   2.040000000  12.181771764
     4   3.535260000   0.801550000  -2.306700000   1.800000000   8.976509756
     5   2.587890000  -1.062590000  -0.669290000   1.440000000   7.092605438
     6   3.764080000  -0.132120000   0.374830000   1.440000000   8.273215719
     7   2.459600000   1.984550000  -1.019280000   1.440000000   7.030921422
     8   4.510170000  -1.555570000  -4.211660000   1.800000000  20.268796339
     9   4.188800000  -0.798030000  -3.709730000   1.440000000   0.593925604
    10   4.161250000  -1.403560000  -5.096560000   1.440000000   4.865725829
    11   3.130820000   0.466430000  -5.169060000   1.800000000  12.439258795
    12   3.520250000   0.828300000  -5.971880000   1.440000000   9.845727228
    13   3.301770000   1.146260000  -4.507270000   1.440000000   4.778707327

 TOTAL NUMBER OF TESSERAE=     272
 SURFACE AREA=   138.50565280(A**2)    CAVITY VOLUME=    119.41274374 (A**3)
 STEP CPU TIME =     0.00 TOTAL CPU TIME =          5.2 (      0.1 MIN)
 TOTAL WALL CLOCK TIME=          5.2 SECONDS, CPU UTILIZATION IS   100.00%

          THE SOLUTE IS ENCLOSED IN ONE CAVITY
 DONE CHECKING SEPARATION.
 STEP CPU TIME =     0.00 TOTAL CPU TIME =          5.2 (      0.1 MIN)
 TOTAL WALL CLOCK TIME=          5.2 SECONDS, CPU UTILIZATION IS   100.00%
 
 ..... DONE SETTING UP PCM CALCULATION .....
 STEP CPU TIME =     0.00 TOTAL CPU TIME =          5.2 (      0.1 MIN)
 TOTAL WALL CLOCK TIME=          5.2 SECONDS, CPU UTILIZATION IS   100.00%

          --------------------------
               R-AM1 SCF CALCULATION
          --------------------------
     DENSITY MATRIX CONV=  1.00E-05

 ITER EX DEM     TOTAL ENERGY        E CHANGE  DENSITY CHANGE    DIIS ERROR
   1  0  0      -62.0865817917   -62.0865817917   0.001651075   0.000000000
   2  1  0      -62.0865933943    -0.0000116026   0.000597448   0.000000000
   3  2  0      -62.0865950649    -0.0000016706   0.000325005   0.000000000
   4  3  0      -62.0865954142    -0.0000003493   0.000189271   0.000000000
   5  0  0      -62.0865955067    -0.0000000925   0.000270634   0.000000000
   6  1  0      -62.0865955510    -0.0000000443   0.000014428   0.000000000
   7  2  0      -62.0865955513    -0.0000000003   0.000010266   0.000000000
   8  3  0      -62.0865955515    -0.0000000002   0.000007346   0.000000000

          -----------------
          DENSITY CONVERGED
          -----------------
     TIME TO FORM FOCK OPERATORS=       0.1 SECONDS (       0.0 SEC/ITER)
     TIME TO SOLVE SCF EQUATIONS=       0.0 SECONDS (       0.0 SEC/ITER)

 FINAL R-AM1 ENERGY IS      -62.0865955515 AFTER   8 ITERATIONS

 HEAT OF FORMATION IS      -182.97236 KCAL/MOL
 
  
   PCM ASC=      0.0394078920
   GCAVP  =      0.0000000000
   GDISP  =      0.0000000000
   GREP   =      0.0000000000
 ...... END OF RHF CALCULATION ......
 STEP CPU TIME =     0.08 TOTAL CPU TIME =          5.3 (      0.1 MIN)
 TOTAL WALL CLOCK TIME=          5.3 SECONDS, CPU UTILIZATION IS   100.00%
 
 .... DONE WITH PCM CONTRIBUTION TO GRADIENT ....
 STEP CPU TIME =     0.01 TOTAL CPU TIME =          5.3 (      0.1 MIN)
 TOTAL WALL CLOCK TIME=          5.3 SECONDS, CPU UTILIZATION IS   100.00%
 STEP CPU TIME =     0.00 TOTAL CPU TIME =          5.3 (      0.1 MIN)
 TOTAL WALL CLOCK TIME=          5.3 SECONDS, CPU UTILIZATION IS   100.00%

 UNITS ARE HARTREE/BOHR    E'X               E'Y               E'Z 
    1 CL              -0.000270797       0.000312532       0.000223734
    2 C               -0.000347804      -0.005091235       0.000360905
    3 C               -0.000028367       0.001879386      -0.000819511
    4 O                0.000196911      -0.000044903      -0.000431507
    5 H                0.000476862       0.002283766       0.000890912
    6 H               -0.000034271       0.000356766      -0.000035802
    7 H               -0.000082972       0.000260333      -0.000213868
    8 O                0.000033655       0.000006013       0.000021349
    9 H                0.000019224       0.000021306       0.000014495
   10 H                0.000031498       0.000014163      -0.000007287
   11 O               -0.000134992      -0.000249077       0.000331390
   12 H                0.000126907       0.000182848      -0.000387708
   13 H                0.000014146       0.000068102       0.000052898
  $VIB   
          IVIB=   2 IATOM=   2 ICOORD=   2 E=      -62.0865955515
 -2.707973825E-04 3.125323984E-04 2.237343896E-04-3.478042394E-04-5.091234713E-03
  3.609051935E-04-2.836733788E-05 1.879386321E-03-8.195107760E-04 1.969111540E-04
 -4.490296980E-05-4.315073002E-04 4.768621090E-04 2.283765523E-03 8.909116526E-04
 -3.427110589E-05 3.567661586E-04-3.580233064E-05-8.297198368E-05 2.603328834E-04
 -2.138682944E-04 3.365515819E-05 6.013082306E-06 2.134906650E-05 1.922434027E-05
  2.130565458E-05 1.449487080E-05 3.149843205E-05 1.416310585E-05-7.286705878E-06
 -1.349923005E-04-2.490767322E-04 3.313898276E-04 1.269067018E-04 1.828477258E-04
 -3.877077456E-04 1.414645463E-05 6.810156195E-05 5.289815220E-05
 -3.561057476E-01 3.424090995E+00 7.144918764E-01
1   ATOM  2
                                        -------------------
   COORD  3                             NUCLEAR COORDINATES
                                        -------------------
     VIB  2

                       ATOM             X              Y              Z

                 1  CL               2.880774       0.521130       1.761640
                 2  C                5.308278      -0.128388      -0.402496
                 3  C                5.534573       1.894072      -2.363140
                 4  O                6.680673       1.514710      -4.359031
                 5  H                4.890403      -2.008004      -1.264775
                 6  H                7.113080      -0.249671       0.708326
                 7  H                4.647970       3.750256      -1.926160
                 8  O                8.522985      -2.939601      -7.958883
                 9  H                7.915684      -1.508058      -7.010373
                10  H                7.863622      -2.652344      -9.631102
                11  O                5.916392       0.881425      -9.768107
                12  H                6.652308       1.565260     -11.285217
                13  H                6.239441       2.166117      -8.517505

 MOPAC ONE- AND TWO-ELECTRON INTEGRALS REQUIRE      2933 WORDS.
 ...... END OF ONE- AND TWO-ELECTRON INTEGRALS......
 STEP CPU TIME =     0.00 TOTAL CPU TIME =          5.3 (      0.1 MIN)
 TOTAL WALL CLOCK TIME=          5.3 SECONDS, CPU UTILIZATION IS   100.00%
 ...... END OF ONE-ELECTRON INTEGRALS ......
 STEP CPU TIME =     0.00 TOTAL CPU TIME =          5.3 (      0.1 MIN)
 TOTAL WALL CLOCK TIME=          5.3 SECONDS, CPU UTILIZATION IS   100.00%

     ----------------------------
     INPUT FOR TESSERA DEFINITION
     ----------------------------
     NTSALL  =        60     MTHALL  =         4
     MTHAUT  =         0     AUTFRE  =    2.0000
     NTSFRZ  =        60     KEEPSM  =         0
     AREAKP  =   10.0000     BONDRY  =    1.0000
     AREATL  =    0.0100

     SPHERE     INITS       METHOD
          1        60       FIXPVA
          2        60       FIXPVA
          3        60       FIXPVA
          4        60       FIXPVA
          5        60       FIXPVA
          6        60       FIXPVA
          7        60       FIXPVA
          8        60       FIXPVA
          9        60       FIXPVA
         10        60       FIXPVA
         11        60       FIXPVA
         12        60       FIXPVA
         13        60       FIXPVA

     ------------------------------
      FIXPVA TESSELLATION FOR PCM
         PEIFENG SU AND HUI LI
     UNIVERSITY OF NEBRASKA-LINCOLN
     ------------------------------


     INPUT FOR CAVITY DEFINITION 
     ---------------------------
   ATOM               COORDINATES                RADIUS       EPS
      1      1.5244      0.2758      0.9322      1.8100     78.3900
      2      2.8090     -0.0679     -0.2130      1.7000     78.3900
      3      2.9288      1.0023     -1.2505      1.7000     78.3900
      4      3.5353      0.8015     -2.3067      1.5000     78.3900
      5      2.5879     -1.0626     -0.6693      1.2000     78.3900
      6      3.7641     -0.1321      0.3748      1.2000     78.3900
      7      2.4596      1.9845     -1.0193      1.2000     78.3900
      8      4.5102     -1.5556     -4.2117      1.5000     78.3900
      9      4.1888     -0.7980     -3.7097      1.2000     78.3900
     10      4.1612     -1.4036     -5.0966      1.2000     78.3900
     11      3.1308      0.4664     -5.1691      1.5000     78.3900
     12      3.5202      0.8283     -5.9719      1.2000     78.3900
     13      3.3018      1.1463     -4.5073      1.2000     78.3900

 MEMORY USED TO GENERATE CAVITY=    262582


 TOTAL NUMBER OF SPHERES=    13
 SPHERE           CENTER  (X,Y,Z) (A)               RADIUS (A)      AREA(A*A)
     1   1.524440000   0.275770000   0.932220000   2.172000000  38.498235258
     2   2.809020000  -0.067940000  -0.212991772   2.040000000   3.680958392
     3   2.928770000   1.002300000  -1.250520000   2.040000000  12.181771764
     4   3.535260000   0.801550000  -2.306700000   1.800000000   8.975043729
     5   2.587890000  -1.062590000  -0.669290000   1.440000000   7.087798474
     6   3.764080000  -0.132120000   0.374830000   1.440000000   8.264949477
     7   2.459600000   1.984550000  -1.019280000   1.440000000   7.030806219
     8   4.510170000  -1.555570000  -4.211660000   1.800000000  20.268917325
     9   4.188800000  -0.798030000  -3.709730000   1.440000000   0.593798699
    10   4.161250000  -1.403560000  -5.096560000   1.440000000   4.865725829
    11   3.130820000   0.466430000  -5.169060000   1.800000000  12.439258795
    12   3.520250000   0.828300000  -5.971880000   1.440000000   9.845727228
    13   3.301770000   1.146260000  -4.507270000   1.440000000   4.778707327

 TOTAL NUMBER OF TESSERAE=     272
 SURFACE AREA=   138.51169852(A**2)    CAVITY VOLUME=    119.39173435 (A**3)
 STEP CPU TIME =     0.00 TOTAL CPU TIME =          5.3 (      0.1 MIN)
 TOTAL WALL CLOCK TIME=          5.3 SECONDS, CPU UTILIZATION IS   100.00%

          THE SOLUTE IS ENCLOSED IN ONE CAVITY
 DONE CHECKING SEPARATION.
 STEP CPU TIME =     0.00 TOTAL CPU TIME =          5.3 (      0.1 MIN)
 TOTAL WALL CLOCK TIME=          5.3 SECONDS, CPU UTILIZATION IS   100.00%
 
 ..... DONE SETTING UP PCM CALCULATION .....
 STEP CPU TIME =     0.00 TOTAL CPU TIME =          5.3 (      0.1 MIN)
 TOTAL WALL CLOCK TIME=          5.3 SECONDS, CPU UTILIZATION IS   100.00%

          --------------------------
               R-AM1 SCF CALCULATION
          --------------------------
     DENSITY MATRIX CONV=  1.00E-05

 ITER EX DEM     TOTAL ENERGY        E CHANGE  DENSITY CHANGE    DIIS ERROR
   1  0  0      -62.0865832335   -62.0865832335   0.001554362   0.000000000
   2  1  0      -62.0865955587    -0.0000123252   0.000772833   0.000000000
   3  2  0      -62.0865971189    -0.0000015603   0.000415046   0.000000000
   4  3  0      -62.0865974171    -0.0000002981   0.000227624   0.000000000
   5  0  0      -62.0865974938    -0.0000000768   0.000311476   0.000000000
   6  1  0      -62.0865975336    -0.0000000398   0.000019189   0.000000000
   7  2  0      -62.0865975341    -0.0000000004   0.000013295   0.000000000
   8  3  0      -62.0865975343    -0.0000000002   0.000009371   0.000000000

          -----------------
          DENSITY CONVERGED
          -----------------
     TIME TO FORM FOCK OPERATORS=       0.1 SECONDS (       0.0 SEC/ITER)
     TIME TO SOLVE SCF EQUATIONS=       0.0 SECONDS (       0.0 SEC/ITER)

 FINAL R-AM1 ENERGY IS      -62.0865975343 AFTER   8 ITERATIONS

 HEAT OF FORMATION IS      -182.97361 KCAL/MOL
 
  
   PCM ASC=      0.0394144048
   GCAVP  =      0.0000000000
   GDISP  =      0.0000000000
   GREP   =      0.0000000000
 ...... END OF RHF CALCULATION ......
 STEP CPU TIME =     0.10 TOTAL CPU TIME =          5.4 (      0.1 MIN)
 TOTAL WALL CLOCK TIME=          5.4 SECONDS, CPU UTILIZATION IS   100.00%
 
 .... DONE WITH PCM CONTRIBUTION TO GRADIENT ....
 STEP CPU TIME =     0.01 TOTAL CPU TIME =          5.4 (      0.1 MIN)
 TOTAL WALL CLOCK TIME=          5.4 SECONDS, CPU UTILIZATION IS   100.00%
 STEP CPU TIME =     0.00 TOTAL CPU TIME =          5.4 (      0.1 MIN)
 TOTAL WALL CLOCK TIME=          5.4 SECONDS, CPU UTILIZATION IS   100.00%

 UNITS ARE HARTREE/BOHR    E'X               E'Y               E'Z 
    1 CL              -0.000760432       0.000197525       0.000888523
    2 C               -0.000340845       0.000331592      -0.004784518
    3 C               -0.000017667      -0.000968914       0.001529876
    4 O               -0.000244710      -0.000311342       0.000559566
    5 H                0.000233129       0.000862341       0.000751081
    6 H                0.001124078      -0.000086520       0.001058256
    7 H               -0.000083828      -0.000068386      -0.000026987
    8 O                0.000033348       0.000006313       0.000022357
    9 H                0.000019627       0.000020713       0.000013713
   10 H                0.000031485       0.000014128      -0.000007580
   11 O               -0.000134585      -0.000249194       0.000332426
   12 H                0.000126826       0.000182842      -0.000387932
   13 H                0.000013575       0.000068901       0.000051219
  $VIB   
          IVIB=   2 IATOM=   2 ICOORD=   3 E=      -62.0865975343
 -7.604319922E-04 1.975251983E-04 8.885225515E-04-3.408452978E-04 3.315923588E-04
 -4.784517812E-03-1.766701716E-05-9.689138376E-04 1.529876045E-03-2.447102009E-04
 -3.113418350E-04 5.595661196E-04 2.331287904E-04 8.623410656E-04 7.510813202E-04
  1.124077625E-03-8.651953622E-05 1.058256153E-03-8.382759769E-05-6.838615026E-05
 -2.698729023E-05 3.334793682E-05 6.313248216E-06 2.235665049E-05 1.962726861E-05
  2.071266152E-05 1.371328807E-05 3.148454552E-05 1.412833277E-05-7.580118863E-06
 -1.345850409E-04-2.491944397E-04 3.324264417E-04 1.268263093E-04 1.828415793E-04
 -3.879323384E-04 1.357467102E-05 6.890135428E-05 5.121899031E-05
 -3.590981544E-01 3.416804947E+00 7.253909241E-01
1   ATOM  3
                                        -------------------
   COORD  1                             NUCLEAR COORDINATES
                                        -------------------
     VIB  2

                       ATOM             X              Y              Z

                 1  CL               2.880774       0.521130       1.761640
                 2  C                5.308278      -0.128388      -0.392496
                 3  C                5.524573       1.894072      -2.363140
                 4  O                6.680673       1.514710      -4.359031
                 5  H                4.890403      -2.008004      -1.264775
                 6  H                7.113080      -0.249671       0.708326
                 7  H                4.647970       3.750256      -1.926160
                 8  O                8.522985      -2.939601      -7.958883
                 9  H                7.915684      -1.508058      -7.010373
                10  H                7.863622      -2.652344      -9.631102
                11  O                5.916392       0.881425      -9.768107
                12  H                6.652308       1.565260     -11.285217
                13  H                6.239441       2.166117      -8.517505

 MOPAC ONE- AND TWO-ELECTRON INTEGRALS REQUIRE      2933 WORDS.
 ...... END OF ONE- AND TWO-ELECTRON INTEGRALS......
 STEP CPU TIME =     0.00 TOTAL CPU TIME =          5.4 (      0.1 MIN)
 TOTAL WALL CLOCK TIME=          5.4 SECONDS, CPU UTILIZATION IS   100.00%
 ...... END OF ONE-ELECTRON INTEGRALS ......
 STEP CPU TIME =     0.00 TOTAL CPU TIME =          5.4 (      0.1 MIN)
 TOTAL WALL CLOCK TIME=          5.4 SECONDS, CPU UTILIZATION IS   100.00%

     ----------------------------
     INPUT FOR TESSERA DEFINITION
     ----------------------------
     NTSALL  =        60     MTHALL  =         4
     MTHAUT  =         0     AUTFRE  =    2.0000
     NTSFRZ  =        60     KEEPSM  =         0
     AREAKP  =   10.0000     BONDRY  =    1.0000
     AREATL  =    0.0100

     SPHERE     INITS       METHOD
          1        60       FIXPVA
          2        60       FIXPVA
          3        60       FIXPVA
          4        60       FIXPVA
          5        60       FIXPVA
          6        60       FIXPVA
          7        60       FIXPVA
          8        60       FIXPVA
          9        60       FIXPVA
         10        60       FIXPVA
         11        60       FIXPVA
         12        60       FIXPVA
         13        60       FIXPVA

     ------------------------------
      FIXPVA TESSELLATION FOR PCM
         PEIFENG SU AND HUI LI
     UNIVERSITY OF NEBRASKA-LINCOLN
     ------------------------------


     INPUT FOR CAVITY DEFINITION 
     ---------------------------
   ATOM               COORDINATES                RADIUS       EPS
      1      1.5244      0.2758      0.9322      1.8100     78.3900
      2      2.8090     -0.0679     -0.2077      1.7000     78.3900
      3      2.9235      1.0023     -1.2505      1.7000     78.3900
      4      3.5353      0.8015     -2.3067      1.5000     78.3900
      5      2.5879     -1.0626     -0.6693      1.2000     78.3900
      6      3.7641     -0.1321      0.3748      1.2000     78.3900
      7      2.4596      1.9845     -1.0193      1.2000     78.3900
      8      4.5102     -1.5556     -4.2117      1.5000     78.3900
      9      4.1888     -0.7980     -3.7097      1.2000     78.3900
     10      4.1612     -1.4036     -5.0966      1.2000     78.3900
     11      3.1308      0.4664     -5.1691      1.5000     78.3900
     12      3.5202      0.8283     -5.9719      1.2000     78.3900
     13      3.3018      1.1463     -4.5073      1.2000     78.3900

 MEMORY USED TO GENERATE CAVITY=    262582


 TOTAL NUMBER OF SPHERES=    13
 SPHERE           CENTER  (X,Y,Z) (A)               RADIUS (A)      AREA(A*A)
     1   1.524440000   0.275770000   0.932220000   2.172000000  38.461794007
     2   2.809020000  -0.067940000  -0.207700000   2.040000000   3.657655241
     3   2.923478228   1.002300000  -1.250520000   2.040000000  12.145944198
     4   3.535260000   0.801550000  -2.306700000   1.800000000   9.023639019
     5   2.587890000  -1.062590000  -0.669290000   1.440000000   7.103774693
     6   3.764080000  -0.132120000   0.374830000   1.440000000   8.281431637
     7   2.459600000   1.984550000  -1.019280000   1.440000000   7.038065882
     8   4.510170000  -1.555570000  -4.211660000   1.800000000  20.269614417
     9   4.188800000  -0.798030000  -3.709730000   1.440000000   0.594257784
    10   4.161250000  -1.403560000  -5.096560000   1.440000000   4.865725829
    11   3.130820000   0.466430000  -5.169060000   1.800000000  12.438243563
    12   3.520250000   0.828300000  -5.971880000   1.440000000   9.845727228
    13   3.301770000   1.146260000  -4.507270000   1.440000000   4.776624554

 TOTAL NUMBER OF TESSERAE=     271
 SURFACE AREA=   138.50249805(A**2)    CAVITY VOLUME=    119.43630463 (A**3)
 STEP CPU TIME =     0.00 TOTAL CPU TIME =          5.4 (      0.1 MIN)
 TOTAL WALL CLOCK TIME=          5.4 SECONDS, CPU UTILIZATION IS   100.00%

          THE SOLUTE IS ENCLOSED IN ONE CAVITY
 DONE CHECKING SEPARATION.
 STEP CPU TIME =     0.00 TOTAL CPU TIME =          5.4 (      0.1 MIN)
 TOTAL WALL CLOCK TIME=          5.4 SECONDS, CPU UTILIZATION IS   100.00%
 
 ..... DONE SETTING UP PCM CALCULATION .....
 STEP CPU TIME =     0.00 TOTAL CPU TIME =          5.4 (      0.1 MIN)
 TOTAL WALL CLOCK TIME=          5.4 SECONDS, CPU UTILIZATION IS   100.00%

          --------------------------
               R-AM1 SCF CALCULATION
          --------------------------
     DENSITY MATRIX CONV=  1.00E-05

 ITER EX DEM     TOTAL ENERGY        E CHANGE  DENSITY CHANGE    DIIS ERROR
   1  0  0      -62.0865716215   -62.0865716215   0.002910057   0.000000000
   2  1  0      -62.0865930897    -0.0000214682   0.001206607   0.000000000
   3  2  0      -62.0865965342    -0.0000034445   0.000536120   0.000000000
   4  3  0      -62.0865972397    -0.0000007056   0.000245477   0.000000000
   5  0  0      -62.0865973971    -0.0000001574   0.000220858   0.000000000
   6  1  0      -62.0865974461    -0.0000000490   0.000011674   0.000000000
   7  2  0      -62.0865974463    -0.0000000002   0.000008248   0.000000000
   8  3  0      -62.0865974464    -0.0000000001   0.000005864   0.000000000

          -----------------
          DENSITY CONVERGED
          -----------------
     TIME TO FORM FOCK OPERATORS=       0.1 SECONDS (       0.0 SEC/ITER)
     TIME TO SOLVE SCF EQUATIONS=       0.0 SECONDS (       0.0 SEC/ITER)

 FINAL R-AM1 ENERGY IS      -62.0865974464 AFTER   8 ITERATIONS

 HEAT OF FORMATION IS      -182.97355 KCAL/MOL
 
  
   PCM ASC=      0.0394012944
   GCAVP  =      0.0000000000
   GDISP  =      0.0000000000
   GREP   =      0.0000000000
 ...... END OF RHF CALCULATION ......
 STEP CPU TIME =     0.10 TOTAL CPU TIME =          5.6 (      0.1 MIN)
 TOTAL WALL CLOCK TIME=          5.6 SECONDS, CPU UTILIZATION IS   100.00%
 
 .... DONE WITH PCM CONTRIBUTION TO GRADIENT ....
 STEP CPU TIME =     0.01 TOTAL CPU TIME =          5.6 (      0.1 MIN)
 TOTAL WALL CLOCK TIME=          5.6 SECONDS, CPU UTILIZATION IS   100.00%
 STEP CPU TIME =     0.00 TOTAL CPU TIME =          5.6 (      0.1 MIN)
 TOTAL WALL CLOCK TIME=          5.6 SECONDS, CPU UTILIZATION IS   100.00%

 UNITS ARE HARTREE/BOHR    E'X               E'Y               E'Z 
    1 CL               0.000095032       0.000086805      -0.000278849
    2 C                0.000669113       0.000020836       0.000124290
    3 C               -0.004660818       0.001653826       0.004103336
    4 O                0.002931124      -0.000785750      -0.004069659
    5 H               -0.000058553       0.000012427      -0.000062238
    6 H                0.000015632      -0.000170233       0.000219842
    7 H                0.000914288      -0.000861010      -0.000051314
    8 O                0.000032971       0.000007386       0.000024740
    9 H                0.000023665       0.000015933       0.000009186
   10 H                0.000031411       0.000013838      -0.000008673
   11 O               -0.000133867      -0.000248531       0.000338729
   12 H                0.000126940       0.000183248      -0.000388979
   13 H                0.000013063       0.000071225       0.000039589
  $VIB   
          IVIB=   2 IATOM=   3 ICOORD=   1 E=      -62.0865974464
  9.503156481E-05 8.680468169E-05-2.788494680E-04 6.691132663E-04 2.083626118E-05
  1.242904524E-04-4.660817843E-03 1.653825818E-03 4.103336239E-03 2.931124101E-03
 -7.857504879E-04-4.069659495E-03-5.855320458E-05 1.242676756E-05-6.223795208E-05
  1.563176445E-05-1.702325408E-04 2.198424931E-04 9.142883477E-04-8.610098095E-04
 -5.131415998E-05 3.297066865E-05 7.385598781E-06 2.474045762E-05 2.366460034E-05
  1.593334162E-05 9.186116134E-06 3.141136301E-05 1.383766640E-05-8.673213803E-06
 -1.338673347E-04-2.485307923E-04 3.387287289E-04 1.269396835E-04 1.832481794E-04
 -3.889790211E-04 1.306302283E-05 7.122531538E-05 3.958882253E-05
 -3.638400857E-01 3.419116283E+00 7.139835021E-01
1   ATOM  3
                                        -------------------
   COORD  2                             NUCLEAR COORDINATES
                                        -------------------
     VIB  2

                       ATOM             X              Y              Z

                 1  CL               2.880774       0.521130       1.761640
                 2  C                5.308278      -0.128388      -0.392496
                 3  C                5.534573       1.884072      -2.363140
                 4  O                6.680673       1.514710      -4.359031
                 5  H                4.890403      -2.008004      -1.264775
                 6  H                7.113080      -0.249671       0.708326
                 7  H                4.647970       3.750256      -1.926160
                 8  O                8.522985      -2.939601      -7.958883
                 9  H                7.915684      -1.508058      -7.010373
                10  H                7.863622      -2.652344      -9.631102
                11  O                5.916392       0.881425      -9.768107
                12  H                6.652308       1.565260     -11.285217
                13  H                6.239441       2.166117      -8.517505

 MOPAC ONE- AND TWO-ELECTRON INTEGRALS REQUIRE      2933 WORDS.
 ...... END OF ONE- AND TWO-ELECTRON INTEGRALS......
 STEP CPU TIME =     0.00 TOTAL CPU TIME =          5.6 (      0.1 MIN)
 TOTAL WALL CLOCK TIME=          5.6 SECONDS, CPU UTILIZATION IS   100.00%
 ...... END OF ONE-ELECTRON INTEGRALS ......
 STEP CPU TIME =     0.00 TOTAL CPU TIME =          5.6 (      0.1 MIN)
 TOTAL WALL CLOCK TIME=          5.6 SECONDS, CPU UTILIZATION IS   100.00%

     ----------------------------
     INPUT FOR TESSERA DEFINITION
     ----------------------------
     NTSALL  =        60     MTHALL  =         4
     MTHAUT  =         0     AUTFRE  =    2.0000
     NTSFRZ  =        60     KEEPSM  =         0
     AREAKP  =   10.0000     BONDRY  =    1.0000
     AREATL  =    0.0100

     SPHERE     INITS       METHOD
          1        60       FIXPVA
          2        60       FIXPVA
          3        60       FIXPVA
          4        60       FIXPVA
          5        60       FIXPVA
          6        60       FIXPVA
          7        60       FIXPVA
          8        60       FIXPVA
          9        60       FIXPVA
         10        60       FIXPVA
         11        60       FIXPVA
         12        60       FIXPVA
         13        60       FIXPVA

     ------------------------------
      FIXPVA TESSELLATION FOR PCM
         PEIFENG SU AND HUI LI
     UNIVERSITY OF NEBRASKA-LINCOLN
     ------------------------------


     INPUT FOR CAVITY DEFINITION 
     ---------------------------
   ATOM               COORDINATES                RADIUS       EPS
      1      1.5244      0.2758      0.9322      1.8100     78.3900
      2      2.8090     -0.0679     -0.2077      1.7000     78.3900
      3      2.9288      0.9970     -1.2505      1.7000     78.3900
      4      3.5353      0.8015     -2.3067      1.5000     78.3900
      5      2.5879     -1.0626     -0.6693      1.2000     78.3900
      6      3.7641     -0.1321      0.3748      1.2000     78.3900
      7      2.4596      1.9845     -1.0193      1.2000     78.3900
      8      4.5102     -1.5556     -4.2117      1.5000     78.3900
      9      4.1888     -0.7980     -3.7097      1.2000     78.3900
     10      4.1612     -1.4036     -5.0966      1.2000     78.3900
     11      3.1308      0.4664     -5.1691      1.5000     78.3900
     12      3.5202      0.8283     -5.9719      1.2000     78.3900
     13      3.3018      1.1463     -4.5073      1.2000     78.3900

 MEMORY USED TO GENERATE CAVITY=    262582


 TOTAL NUMBER OF SPHERES=    13
 SPHERE           CENTER  (X,Y,Z) (A)               RADIUS (A)      AREA(A*A)
     1   1.524440000   0.275770000   0.932220000   2.172000000  38.481626534
     2   2.809020000  -0.067940000  -0.207700000   2.040000000   3.656893356
     3   2.928770000   0.997008228  -1.250520000   2.040000000  12.160074152
     4   3.535260000   0.801550000  -2.306700000   1.800000000   9.007573255
     5   2.587890000  -1.062590000  -0.669290000   1.440000000   7.103855653
     6   3.764080000  -0.132120000   0.374830000   1.440000000   8.266450334
     7   2.459600000   1.984550000  -1.019280000   1.440000000   7.066215312
     8   4.510170000  -1.555570000  -4.211660000   1.800000000  20.269614417
     9   4.188800000  -0.798030000  -3.709730000   1.440000000   0.593917980
    10   4.161250000  -1.403560000  -5.096560000   1.440000000   4.865725829
    11   3.130820000   0.466430000  -5.169060000   1.800000000  12.437977199
    12   3.520250000   0.828300000  -5.971880000   1.440000000   9.845727228
    13   3.301770000   1.146260000  -4.507270000   1.440000000   4.783416048

 TOTAL NUMBER OF TESSERAE=     272
 SURFACE AREA=   138.53906730(A**2)    CAVITY VOLUME=    119.43784305 (A**3)
 STEP CPU TIME =     0.00 TOTAL CPU TIME =          5.6 (      0.1 MIN)
 TOTAL WALL CLOCK TIME=          5.6 SECONDS, CPU UTILIZATION IS   100.00%

          THE SOLUTE IS ENCLOSED IN ONE CAVITY
 DONE CHECKING SEPARATION.
 STEP CPU TIME =     0.00 TOTAL CPU TIME =          5.6 (      0.1 MIN)
 TOTAL WALL CLOCK TIME=          5.6 SECONDS, CPU UTILIZATION IS   100.00%
 
 ..... DONE SETTING UP PCM CALCULATION .....
 STEP CPU TIME =     0.00 TOTAL CPU TIME =          5.6 (      0.1 MIN)
 TOTAL WALL CLOCK TIME=          5.6 SECONDS, CPU UTILIZATION IS   100.00%

          --------------------------
               R-AM1 SCF CALCULATION
          --------------------------
     DENSITY MATRIX CONV=  1.00E-05

 ITER EX DEM     TOTAL ENERGY        E CHANGE  DENSITY CHANGE    DIIS ERROR
   1  0  0      -62.0865717303   -62.0865717303   0.002196721   0.000000000
   2  1  0      -62.0865912701    -0.0000195398   0.001045825   0.000000000
   3  2  0      -62.0865941420    -0.0000028719   0.000523000   0.000000000
   4  3  0      -62.0865947547    -0.0000006127   0.000269766   0.000000000
   5  0  0      -62.0865949104    -0.0000001557   0.000306656   0.000000000
   6  1  0      -62.0865949717    -0.0000000613   0.000004852   0.000000000
   7  2  0      -62.0865949719    -0.0000000001   0.000002922   0.000000000
   8  3  0      -62.0865949719     0.0000000000   0.000001989   0.000000000

          -----------------
          DENSITY CONVERGED
          -----------------
     TIME TO FORM FOCK OPERATORS=       0.1 SECONDS (       0.0 SEC/ITER)
     TIME TO SOLVE SCF EQUATIONS=       0.0 SECONDS (       0.0 SEC/ITER)

 FINAL R-AM1 ENERGY IS      -62.0865949719 AFTER   8 ITERATIONS

 HEAT OF FORMATION IS      -182.97200 KCAL/MOL
 
  
   PCM ASC=      0.0393911059
   GCAVP  =      0.0000000000
   GDISP  =      0.0000000000
   GREP   =      0.0000000000
 ...... END OF RHF CALCULATION ......
 STEP CPU TIME =     0.08 TOTAL CPU TIME =          5.6 (      0.1 MIN)
 TOTAL WALL CLOCK TIME=          5.6 SECONDS, CPU UTILIZATION IS   100.00%
 
 .... DONE WITH PCM CONTRIBUTION TO GRADIENT ....
 STEP CPU TIME =     0.01 TOTAL CPU TIME =          5.7 (      0.1 MIN)
 TOTAL WALL CLOCK TIME=          5.7 SECONDS, CPU UTILIZATION IS   100.00%
 STEP CPU TIME =     0.00 TOTAL CPU TIME =          5.7 (      0.1 MIN)
 TOTAL WALL CLOCK TIME=          5.7 SECONDS, CPU UTILIZATION IS   100.00%

 UNITS ARE HARTREE/BOHR    E'X               E'Y               E'Z 
    1 CL              -0.000040432      -0.000069610       0.000006305
    2 C                0.000123236       0.001803753      -0.000985886
    3 C                0.001469873      -0.005302571      -0.000521248
    4 O               -0.000793564       0.000858848       0.001335135
    5 H                0.000032695       0.000275383      -0.000210609
    6 H               -0.000046361       0.000030926      -0.000082061
    7 H               -0.000836588       0.002363187       0.000432716
    8 O                0.000033278       0.000007553       0.000022088
    9 H                0.000020035       0.000015416       0.000010370
   10 H                0.000031250       0.000014583      -0.000007250
   11 O               -0.000134467      -0.000250028       0.000330067
   12 H                0.000126684       0.000182608      -0.000387551
   13 H                0.000014360       0.000069952       0.000057923
  $VIB   
          IVIB=   2 IATOM=   3 ICOORD=   2 E=      -62.0865949719
 -4.043227220E-05-6.960991034E-05 6.304780458E-06 1.232356856E-04 1.803753159E-03
 -9.858857675E-04 1.469872964E-03-5.302570807E-03-5.212480327E-04-7.935642252E-04
  8.588478609E-04 1.335135410E-03 3.269487244E-05 2.753829759E-04-2.106085337E-04
 -4.636057789E-05 3.092641679E-05-8.206131201E-05-8.365876124E-04 2.363187185E-03
  4.327155903E-04 3.327827021E-05 7.552743772E-06 2.208822968E-05 2.003482974E-05
  1.541608765E-05 1.037032405E-05 3.125040976E-05 1.458256703E-05-7.250042482E-06
 -1.344668003E-04-2.500275154E-04 3.300667791E-04 1.266841504E-04 1.826076635E-04
 -3.875505466E-04 1.436030606E-05 6.995157297E-05 5.792312151E-05
 -3.558551829E-01 3.411153153E+00 7.142692236E-01
1   ATOM  3
                                        -------------------
   COORD  3                             NUCLEAR COORDINATES
                                        -------------------
     VIB  2

                       ATOM             X              Y              Z

                 1  CL               2.880774       0.521130       1.761640
                 2  C                5.308278      -0.128388      -0.392496
                 3  C                5.534573       1.894072      -2.373140
                 4  O                6.680673       1.514710      -4.359031
                 5  H                4.890403      -2.008004      -1.264775
                 6  H                7.113080      -0.249671       0.708326
                 7  H                4.647970       3.750256      -1.926160
                 8  O                8.522985      -2.939601      -7.958883
                 9  H                7.915684      -1.508058      -7.010373
                10  H                7.863622      -2.652344      -9.631102
                11  O                5.916392       0.881425      -9.768107
                12  H                6.652308       1.565260     -11.285217
                13  H                6.239441       2.166117      -8.517505

 MOPAC ONE- AND TWO-ELECTRON INTEGRALS REQUIRE      2933 WORDS.
 ...... END OF ONE- AND TWO-ELECTRON INTEGRALS......
 STEP CPU TIME =     0.00 TOTAL CPU TIME =          5.7 (      0.1 MIN)
 TOTAL WALL CLOCK TIME=          5.7 SECONDS, CPU UTILIZATION IS   100.00%
 ...... END OF ONE-ELECTRON INTEGRALS ......
 STEP CPU TIME =     0.00 TOTAL CPU TIME =          5.7 (      0.1 MIN)
 TOTAL WALL CLOCK TIME=          5.7 SECONDS, CPU UTILIZATION IS   100.00%

     ----------------------------
     INPUT FOR TESSERA DEFINITION
     ----------------------------
     NTSALL  =        60     MTHALL  =         4
     MTHAUT  =         0     AUTFRE  =    2.0000
     NTSFRZ  =        60     KEEPSM  =         0
     AREAKP  =   10.0000     BONDRY  =    1.0000
     AREATL  =    0.0100

     SPHERE     INITS       METHOD
          1        60       FIXPVA
          2        60       FIXPVA
          3        60       FIXPVA
          4        60       FIXPVA
          5        60       FIXPVA
          6        60       FIXPVA
          7        60       FIXPVA
          8        60       FIXPVA
          9        60       FIXPVA
         10        60       FIXPVA
         11        60       FIXPVA
         12        60       FIXPVA
         13        60       FIXPVA

     ------------------------------
      FIXPVA TESSELLATION FOR PCM
         PEIFENG SU AND HUI LI
     UNIVERSITY OF NEBRASKA-LINCOLN
     ------------------------------


     INPUT FOR CAVITY DEFINITION 
     ---------------------------
   ATOM               COORDINATES                RADIUS       EPS
      1      1.5244      0.2758      0.9322      1.8100     78.3900
      2      2.8090     -0.0679     -0.2077      1.7000     78.3900
      3      2.9288      1.0023     -1.2558      1.7000     78.3900
      4      3.5353      0.8015     -2.3067      1.5000     78.3900
      5      2.5879     -1.0626     -0.6693      1.2000     78.3900
      6      3.7641     -0.1321      0.3748      1.2000     78.3900
      7      2.4596      1.9845     -1.0193      1.2000     78.3900
      8      4.5102     -1.5556     -4.2117      1.5000     78.3900
      9      4.1888     -0.7980     -3.7097      1.2000     78.3900
     10      4.1612     -1.4036     -5.0966      1.2000     78.3900
     11      3.1308      0.4664     -5.1691      1.5000     78.3900
     12      3.5202      0.8283     -5.9719      1.2000     78.3900
     13      3.3018      1.1463     -4.5073      1.2000     78.3900

 MEMORY USED TO GENERATE CAVITY=    262582


 TOTAL NUMBER OF SPHERES=    13
 SPHERE           CENTER  (X,Y,Z) (A)               RADIUS (A)      AREA(A*A)
     1   1.524440000   0.275770000   0.932220000   2.172000000  38.491738621
     2   2.809020000  -0.067940000  -0.207700000   2.040000000   3.657198036
     3   2.928770000   1.002300000  -1.255811772   2.040000000  12.137890404
     4   3.535260000   0.801550000  -2.306700000   1.800000000   8.921197555
     5   2.587890000  -1.062590000  -0.669290000   1.440000000   7.103688919
     6   3.764080000  -0.132120000   0.374830000   1.440000000   8.277216445
     7   2.459600000   1.984550000  -1.019280000   1.440000000   7.041176552
     8   4.510170000  -1.555570000  -4.211660000   1.800000000  20.269614417
     9   4.188800000  -0.798030000  -3.709730000   1.440000000   0.594058447
    10   4.161250000  -1.403560000  -5.096560000   1.440000000   4.865725829
    11   3.130820000   0.466430000  -5.169060000   1.800000000  12.437739382
    12   3.520250000   0.828300000  -5.971880000   1.440000000   9.845727228
    13   3.301770000   1.146260000  -4.507270000   1.440000000   4.772384732

 TOTAL NUMBER OF TESSERAE=     272
 SURFACE AREA=   138.41535657(A**2)    CAVITY VOLUME=    119.33885383 (A**3)
 STEP CPU TIME =     0.00 TOTAL CPU TIME =          5.7 (      0.1 MIN)
 TOTAL WALL CLOCK TIME=          5.7 SECONDS, CPU UTILIZATION IS   100.00%

          THE SOLUTE IS ENCLOSED IN ONE CAVITY
 DONE CHECKING SEPARATION.
 STEP CPU TIME =     0.00 TOTAL CPU TIME =          5.7 (      0.1 MIN)
 TOTAL WALL CLOCK TIME=          5.7 SECONDS, CPU UTILIZATION IS   100.00%
 
 ..... DONE SETTING UP PCM CALCULATION .....
 STEP CPU TIME =     0.00 TOTAL CPU TIME =          5.7 (      0.1 MIN)
 TOTAL WALL CLOCK TIME=          5.7 SECONDS, CPU UTILIZATION IS   100.00%

          --------------------------
               R-AM1 SCF CALCULATION
          --------------------------
     DENSITY MATRIX CONV=  1.00E-05

 ITER EX DEM     TOTAL ENERGY        E CHANGE  DENSITY CHANGE    DIIS ERROR
   1  0  0      -62.0865484121   -62.0865484121   0.002753642   0.000000000
   2  1  0      -62.0865701595    -0.0000217474   0.000955284   0.000000000
   3  2  0      -62.0865726922    -0.0000025327   0.000373212   0.000000000
   4  3  0      -62.0865731521    -0.0000004599   0.000172932   0.000000000
   5  0  0      -62.0865732532    -0.0000001011   0.000179067   0.000000000
   6  1  0      -62.0865732862    -0.0000000330   0.000007153   0.000000000
   7  2  0      -62.0865732864    -0.0000000002   0.000005093   0.000000000
   8  3  0      -62.0865732864    -0.0000000000   0.000003648   0.000000000

          -----------------
          DENSITY CONVERGED
          -----------------
     TIME TO FORM FOCK OPERATORS=       0.1 SECONDS (       0.0 SEC/ITER)
     TIME TO SOLVE SCF EQUATIONS=       0.0 SECONDS (       0.0 SEC/ITER)

 FINAL R-AM1 ENERGY IS      -62.0865732864 AFTER   8 ITERATIONS

 HEAT OF FORMATION IS      -182.95839 KCAL/MOL
 
  
   PCM ASC=      0.0394139469
   GCAVP  =      0.0000000000
   GDISP  =      0.0000000000
   GREP   =      0.0000000000
 ...... END OF RHF CALCULATION ......
 STEP CPU TIME =     0.09 TOTAL CPU TIME =          5.7 (      0.1 MIN)
 TOTAL WALL CLOCK TIME=          5.7 SECONDS, CPU UTILIZATION IS   100.00%
 
 .... DONE WITH PCM CONTRIBUTION TO GRADIENT ....
 STEP CPU TIME =     0.00 TOTAL CPU TIME =          5.8 (      0.1 MIN)
 TOTAL WALL CLOCK TIME=          5.8 SECONDS, CPU UTILIZATION IS   100.00%
 STEP CPU TIME =     0.00 TOTAL CPU TIME =          5.8 (      0.1 MIN)
 TOTAL WALL CLOCK TIME=          5.8 SECONDS, CPU UTILIZATION IS   100.00%

 UNITS ARE HARTREE/BOHR    E'X               E'Y               E'Z 
    1 CL              -0.000227405      -0.000141937       0.000283106
    2 C               -0.000113384      -0.000901200       0.001508533
    3 C                0.004051501      -0.000583868      -0.009639923
    4 O               -0.003854870       0.001372291       0.007211603
    5 H               -0.000000864      -0.000117523      -0.000115881
    6 H                0.000170348      -0.000194315       0.000217511
    7 H               -0.000109155       0.000519100       0.000493979
    8 O                0.000034794       0.000002636       0.000014143
    9 H                0.000011159       0.000032707       0.000026873
   10 H                0.000031972       0.000014658      -0.000004340
   11 O               -0.000137210      -0.000247871       0.000323347
   12 H                0.000127236       0.000182933      -0.000385287
   13 H                0.000015878       0.000062389       0.000066336
  $VIB   
          IVIB=   2 IATOM=   3 ICOORD=   3 E=      -62.0865732864
 -2.274050996E-04-1.419374444E-04 2.831064643E-04-1.133840008E-04-9.012001781E-04
  1.508533236E-03 4.051501190E-03-5.838681660E-04-9.639923141E-03-3.854870340E-03
  1.372291255E-03 7.211602512E-03-8.635416648E-07-1.175229084E-04-1.158809358E-04
  1.703484252E-04-1.943148635E-04 2.175105592E-04-1.091554952E-04 5.191000965E-04
  4.939794713E-04 3.479377272E-05 2.636047687E-06 1.414268745E-05 1.115876760E-05
  3.270679898E-05 2.687341228E-05 3.197186908E-05 1.465782516E-05-4.340027136E-06
 -1.372097126E-04-2.478706641E-04 3.233465781E-04 1.272364946E-04 1.829334718E-04
 -3.852869450E-04 1.587767076E-05 6.238872914E-05 6.633612877E-05
 -3.578172871E-01 3.414481496E+00 7.140893157E-01
1   ATOM  4
                                        -------------------
   COORD  1                             NUCLEAR COORDINATES
                                        -------------------
     VIB  2

                       ATOM             X              Y              Z

                 1  CL               2.880774       0.521130       1.761640
                 2  C                5.308278      -0.128388      -0.392496
                 3  C                5.534573       1.894072      -2.363140
                 4  O                6.670673       1.514710      -4.359031
                 5  H                4.890403      -2.008004      -1.264775
                 6  H                7.113080      -0.249671       0.708326
                 7  H                4.647970       3.750256      -1.926160
                 8  O                8.522985      -2.939601      -7.958883
                 9  H                7.915684      -1.508058      -7.010373
                10  H                7.863622      -2.652344      -9.631102
                11  O                5.916392       0.881425      -9.768107
                12  H                6.652308       1.565260     -11.285217
                13  H                6.239441       2.166117      -8.517505

 MOPAC ONE- AND TWO-ELECTRON INTEGRALS REQUIRE      2933 WORDS.
 ...... END OF ONE- AND TWO-ELECTRON INTEGRALS......
 STEP CPU TIME =     0.00 TOTAL CPU TIME =          5.8 (      0.1 MIN)
 TOTAL WALL CLOCK TIME=          5.8 SECONDS, CPU UTILIZATION IS   100.00%
 ...... END OF ONE-ELECTRON INTEGRALS ......
 STEP CPU TIME =     0.00 TOTAL CPU TIME =          5.8 (      0.1 MIN)
 TOTAL WALL CLOCK TIME=          5.8 SECONDS, CPU UTILIZATION IS   100.00%

     ----------------------------
     INPUT FOR TESSERA DEFINITION
     ----------------------------
     NTSALL  =        60     MTHALL  =         4
     MTHAUT  =         0     AUTFRE  =    2.0000
     NTSFRZ  =        60     KEEPSM  =         0
     AREAKP  =   10.0000     BONDRY  =    1.0000
     AREATL  =    0.0100

     SPHERE     INITS       METHOD
          1        60       FIXPVA
          2        60       FIXPVA
          3        60       FIXPVA
          4        60       FIXPVA
          5        60       FIXPVA
          6        60       FIXPVA
          7        60       FIXPVA
          8        60       FIXPVA
          9        60       FIXPVA
         10        60       FIXPVA
         11        60       FIXPVA
         12        60       FIXPVA
         13        60       FIXPVA

     ------------------------------
      FIXPVA TESSELLATION FOR PCM
         PEIFENG SU AND HUI LI
     UNIVERSITY OF NEBRASKA-LINCOLN
     ------------------------------


     INPUT FOR CAVITY DEFINITION 
     ---------------------------
   ATOM               COORDINATES                RADIUS       EPS
      1      1.5244      0.2758      0.9322      1.8100     78.3900
      2      2.8090     -0.0679     -0.2077      1.7000     78.3900
      3      2.9288      1.0023     -1.2505      1.7000     78.3900
      4      3.5300      0.8015     -2.3067      1.5000     78.3900
      5      2.5879     -1.0626     -0.6693      1.2000     78.3900
      6      3.7641     -0.1321      0.3748      1.2000     78.3900
      7      2.4596      1.9845     -1.0193      1.2000     78.3900
      8      4.5102     -1.5556     -4.2117      1.5000     78.3900
      9      4.1888     -0.7980     -3.7097      1.2000     78.3900
     10      4.1612     -1.4036     -5.0966      1.2000     78.3900
     11      3.1308      0.4664     -5.1691      1.5000     78.3900
     12      3.5202      0.8283     -5.9719      1.2000     78.3900
     13      3.3018      1.1463     -4.5073      1.2000     78.3900

 MEMORY USED TO GENERATE CAVITY=    262582


 TOTAL NUMBER OF SPHERES=    13
 SPHERE           CENTER  (X,Y,Z) (A)               RADIUS (A)      AREA(A*A)
     1   1.524440000   0.275770000   0.932220000   2.172000000  38.490629521
     2   2.809020000  -0.067940000  -0.207700000   2.040000000   3.657603320
     3   2.928770000   1.002300000  -1.250520000   2.040000000  12.201298851
     4   3.529968228   0.801550000  -2.306700000   1.800000000   8.929468658
     5   2.587890000  -1.062590000  -0.669290000   1.440000000   7.101684033
     6   3.764080000  -0.132120000   0.374830000   1.440000000   8.269916035
     7   2.459600000   1.984550000  -1.019280000   1.440000000   7.030641202
     8   4.510170000  -1.555570000  -4.211660000   1.800000000  20.269614434
     9   4.188800000  -0.798030000  -3.709730000   1.440000000   0.596644193
    10   4.161250000  -1.403560000  -5.096560000   1.440000000   4.865725829
    11   3.130820000   0.466430000  -5.169060000   1.800000000  12.438110039
    12   3.520250000   0.828300000  -5.971880000   1.440000000   9.845727228
    13   3.301770000   1.146260000  -4.507270000   1.440000000   4.783166465

 TOTAL NUMBER OF TESSERAE=     272
 SURFACE AREA=   138.48022981(A**2)    CAVITY VOLUME=    119.33047495 (A**3)
 STEP CPU TIME =     0.00 TOTAL CPU TIME =          5.8 (      0.1 MIN)
 TOTAL WALL CLOCK TIME=          5.8 SECONDS, CPU UTILIZATION IS   100.00%

          THE SOLUTE IS ENCLOSED IN ONE CAVITY
 DONE CHECKING SEPARATION.
 STEP CPU TIME =     0.00 TOTAL CPU TIME =          5.8 (      0.1 MIN)
 TOTAL WALL CLOCK TIME=          5.8 SECONDS, CPU UTILIZATION IS   100.00%
 
 ..... DONE SETTING UP PCM CALCULATION .....
 STEP CPU TIME =     0.00 TOTAL CPU TIME =          5.8 (      0.1 MIN)
 TOTAL WALL CLOCK TIME=          5.8 SECONDS, CPU UTILIZATION IS   100.00%

          --------------------------
               R-AM1 SCF CALCULATION
          --------------------------
     DENSITY MATRIX CONV=  1.00E-05

 ITER EX DEM     TOTAL ENERGY        E CHANGE  DENSITY CHANGE    DIIS ERROR
   1  0  0      -62.0865861098   -62.0865861098   0.003190713   0.000000000
   2  1  0      -62.0866039142    -0.0000178044   0.001358045   0.000000000
   3  2  0      -62.0866069723    -0.0000030581   0.000604894   0.000000000
   4  3  0      -62.0866075958    -0.0000006235   0.000275347   0.000000000
   5  4  0      -62.0866077300    -0.0000001342   0.000127223   0.000000000
   6  5  0      -62.0866077599    -0.0000000299   0.000059645   0.000000000
   7  6  0      -62.0866077667    -0.0000000069   0.000028461   0.000000000
   8  7  0      -62.0866077684    -0.0000000016   0.000013902   0.000000000
   9  8  0      -62.0866077689    -0.0000000005   0.000007573   0.000000000
  10  9  0      -62.0866077690    -0.0000000001   0.000005300   0.000000000

          -----------------
          DENSITY CONVERGED
          -----------------
     TIME TO FORM FOCK OPERATORS=       0.1 SECONDS (       0.0 SEC/ITER)
     TIME TO SOLVE SCF EQUATIONS=       0.0 SECONDS (       0.0 SEC/ITER)

 FINAL R-AM1 ENERGY IS      -62.0866077690 AFTER  10 ITERATIONS

 HEAT OF FORMATION IS      -182.98003 KCAL/MOL
 
  
   PCM ASC=      0.0394009537
   GCAVP  =      0.0000000000
   GDISP  =      0.0000000000
   GREP   =      0.0000000000
 ...... END OF RHF CALCULATION ......
 STEP CPU TIME =     0.09 TOTAL CPU TIME =          5.9 (      0.1 MIN)
 TOTAL WALL CLOCK TIME=          5.9 SECONDS, CPU UTILIZATION IS   100.00%
 
 .... DONE WITH PCM CONTRIBUTION TO GRADIENT ....
 STEP CPU TIME =     0.01 TOTAL CPU TIME =          5.9 (      0.1 MIN)
 TOTAL WALL CLOCK TIME=          5.9 SECONDS, CPU UTILIZATION IS   100.00%
 STEP CPU TIME =     0.00 TOTAL CPU TIME =          5.9 (      0.1 MIN)
 TOTAL WALL CLOCK TIME=          5.9 SECONDS, CPU UTILIZATION IS   100.00%

 UNITS ARE HARTREE/BOHR    E'X               E'Y               E'Z 
    1 CL              -0.000039970      -0.000025905       0.000007355
    2 C               -0.000114109       0.000081548      -0.000268274
    3 C                0.002756387      -0.000815599      -0.003851855
    4 O               -0.002758319       0.000963000       0.004430386
    5 H               -0.000006300      -0.000078703      -0.000035226
    6 H                0.000050839       0.000005756       0.000027479
    7 H                0.000013677      -0.000161711      -0.000341127
    8 O                0.000034503       0.000001405       0.000015941
    9 H                0.000024864       0.000016675       0.000014963
   10 H                0.000032231       0.000013981      -0.000006186
   11 O               -0.000136570      -0.000248360       0.000331044
   12 H                0.000126751       0.000182215      -0.000387405
   13 H                0.000016015       0.000065697       0.000062904
  $VIB   
          IVIB=   2 IATOM=   4 ICOORD=   1 E=      -62.0866077690
 -3.996974911E-05-2.590486614E-05 7.355348607E-06-1.141086905E-04 8.154758080E-05
 -2.682735421E-04 2.756387065E-03-8.155990871E-04-3.851855473E-03-2.758318944E-03
  9.629997044E-04 4.430386279E-03-6.299697254E-06-7.870268639E-05-3.522620406E-05
  5.083937536E-05 5.755996743E-06 2.747911659E-05 1.367715646E-05-1.617110385E-04
 -3.411266190E-04 3.450297690E-05 1.405335695E-06 1.594134699E-05 2.486397193E-05
  1.667535689E-05 1.496323768E-05 3.223086902E-05 1.398139125E-05-6.186062784E-06
 -1.365696147E-04-2.483596862E-04 3.310437851E-04 1.267505969E-04 1.822147102E-04
 -3.874048200E-04 1.601468368E-05 6.569728823E-05 6.290360684E-05
 -3.466694408E-01 3.417892788E+00 7.184492123E-01
1   ATOM  4
                                        -------------------
   COORD  2                             NUCLEAR COORDINATES
                                        -------------------
     VIB  2

                       ATOM             X              Y              Z

                 1  CL               2.880774       0.521130       1.761640
                 2  C                5.308278      -0.128388      -0.392496
                 3  C                5.534573       1.894072      -2.363140
                 4  O                6.680673       1.504710      -4.359031
                 5  H                4.890403      -2.008004      -1.264775
                 6  H                7.113080      -0.249671       0.708326
                 7  H                4.647970       3.750256      -1.926160
                 8  O                8.522985      -2.939601      -7.958883
                 9  H                7.915684      -1.508058      -7.010373
                10  H                7.863622      -2.652344      -9.631102
                11  O                5.916392       0.881425      -9.768107
                12  H                6.652308       1.565260     -11.285217
                13  H                6.239441       2.166117      -8.517505

 MOPAC ONE- AND TWO-ELECTRON INTEGRALS REQUIRE      2933 WORDS.
 ...... END OF ONE- AND TWO-ELECTRON INTEGRALS......
 STEP CPU TIME =     0.00 TOTAL CPU TIME =          5.9 (      0.1 MIN)
 TOTAL WALL CLOCK TIME=          5.9 SECONDS, CPU UTILIZATION IS   100.00%
 ...... END OF ONE-ELECTRON INTEGRALS ......
 STEP CPU TIME =     0.00 TOTAL CPU TIME =          5.9 (      0.1 MIN)
 TOTAL WALL CLOCK TIME=          5.9 SECONDS, CPU UTILIZATION IS   100.00%

     ----------------------------
     INPUT FOR TESSERA DEFINITION
     ----------------------------
     NTSALL  =        60     MTHALL  =         4
     MTHAUT  =         0     AUTFRE  =    2.0000
     NTSFRZ  =        60     KEEPSM  =         0
     AREAKP  =   10.0000     BONDRY  =    1.0000
     AREATL  =    0.0100

     SPHERE     INITS       METHOD
          1        60       FIXPVA
          2        60       FIXPVA
          3        60       FIXPVA
          4        60       FIXPVA
          5        60       FIXPVA
          6        60       FIXPVA
          7        60       FIXPVA
          8        60       FIXPVA
          9        60       FIXPVA
         10        60       FIXPVA
         11        60       FIXPVA
         12        60       FIXPVA
         13        60       FIXPVA

     ------------------------------
      FIXPVA TESSELLATION FOR PCM
         PEIFENG SU AND HUI LI
     UNIVERSITY OF NEBRASKA-LINCOLN
     ------------------------------


     INPUT FOR CAVITY DEFINITION 
     ---------------------------
   ATOM               COORDINATES                RADIUS       EPS
      1      1.5244      0.2758      0.9322      1.8100     78.3900
      2      2.8090     -0.0679     -0.2077      1.7000     78.3900
      3      2.9288      1.0023     -1.2505      1.7000     78.3900
      4      3.5353      0.7963     -2.3067      1.5000     78.3900
      5      2.5879     -1.0626     -0.6693      1.2000     78.3900
      6      3.7641     -0.1321      0.3748      1.2000     78.3900
      7      2.4596      1.9845     -1.0193      1.2000     78.3900
      8      4.5102     -1.5556     -4.2117      1.5000     78.3900
      9      4.1888     -0.7980     -3.7097      1.2000     78.3900
     10      4.1612     -1.4036     -5.0966      1.2000     78.3900
     11      3.1308      0.4664     -5.1691      1.5000     78.3900
     12      3.5202      0.8283     -5.9719      1.2000     78.3900
     13      3.3018      1.1463     -4.5073      1.2000     78.3900

 MEMORY USED TO GENERATE CAVITY=    262582


 TOTAL NUMBER OF SPHERES=    13
 SPHERE           CENTER  (X,Y,Z) (A)               RADIUS (A)      AREA(A*A)
     1   1.524440000   0.275770000   0.932220000   2.172000000  38.490629521
     2   2.809020000  -0.067940000  -0.207700000   2.040000000   3.656807620
     3   2.928770000   1.002300000  -1.250520000   2.040000000  12.196195831
     4   3.535260000   0.796258228  -2.306700000   1.800000000   8.943896946
     5   2.587890000  -1.062590000  -0.669290000   1.440000000   7.101474091
     6   3.764080000  -0.132120000   0.374830000   1.440000000   8.265256752
     7   2.459600000   1.984550000  -1.019280000   1.440000000   7.030943484
     8   4.510170000  -1.555570000  -4.211660000   1.800000000  20.269614416
     9   4.188800000  -0.798030000  -3.709730000   1.440000000   0.593466860
    10   4.161250000  -1.403560000  -5.096560000   1.440000000   4.865725829
    11   3.130820000   0.466430000  -5.169060000   1.800000000  12.438412607
    12   3.520250000   0.828300000  -5.971880000   1.440000000   9.845727228
    13   3.301770000   1.146260000  -4.507270000   1.440000000   4.789811446

 TOTAL NUMBER OF TESSERAE=     272
 SURFACE AREA=   138.48796263(A**2)    CAVITY VOLUME=    119.35896982 (A**3)
 STEP CPU TIME =     0.01 TOTAL CPU TIME =          5.9 (      0.1 MIN)
 TOTAL WALL CLOCK TIME=          5.9 SECONDS, CPU UTILIZATION IS   100.00%

          THE SOLUTE IS ENCLOSED IN ONE CAVITY
 DONE CHECKING SEPARATION.
 STEP CPU TIME =     0.00 TOTAL CPU TIME =          5.9 (      0.1 MIN)
 TOTAL WALL CLOCK TIME=          5.9 SECONDS, CPU UTILIZATION IS   100.00%
 
 ..... DONE SETTING UP PCM CALCULATION .....
 STEP CPU TIME =     0.00 TOTAL CPU TIME =          5.9 (      0.1 MIN)
 TOTAL WALL CLOCK TIME=          5.9 SECONDS, CPU UTILIZATION IS   100.00%

          --------------------------
               R-AM1 SCF CALCULATION
          --------------------------
     DENSITY MATRIX CONV=  1.00E-05

 ITER EX DEM     TOTAL ENERGY        E CHANGE  DENSITY CHANGE    DIIS ERROR
   1  0  0      -62.0866001926   -62.0866001926   0.002088582   0.000000000
   2  1  0      -62.0866133881    -0.0000131955   0.000984520   0.000000000
   3  2  0      -62.0866157161    -0.0000023280   0.000486176   0.000000000
   4  3  0      -62.0866162399    -0.0000005239   0.000248740   0.000000000
   5  0  0      -62.0866163751    -0.0000001352   0.000286627   0.000000000
   6  1  0      -62.0866164300    -0.0000000549   0.000005010   0.000000000
   7  2  0      -62.0866164301    -0.0000000001   0.000002711   0.000000000
   8  3  0      -62.0866164302    -0.0000000001   0.000001636   0.000000000

          -----------------
          DENSITY CONVERGED
          -----------------
     TIME TO FORM FOCK OPERATORS=       0.1 SECONDS (       0.0 SEC/ITER)
     TIME TO SOLVE SCF EQUATIONS=       0.0 SECONDS (       0.0 SEC/ITER)

 FINAL R-AM1 ENERGY IS      -62.0866164302 AFTER   8 ITERATIONS

 HEAT OF FORMATION IS      -182.98547 KCAL/MOL
 
  
   PCM ASC=      0.0393954365
   GCAVP  =      0.0000000000
   GDISP  =      0.0000000000
   GREP   =      0.0000000000
 ...... END OF RHF CALCULATION ......
 STEP CPU TIME =     0.10 TOTAL CPU TIME =          6.0 (      0.1 MIN)
 TOTAL WALL CLOCK TIME=          6.0 SECONDS, CPU UTILIZATION IS   100.00%
 
 .... DONE WITH PCM CONTRIBUTION TO GRADIENT ....
 STEP CPU TIME =     0.01 TOTAL CPU TIME =          6.0 (      0.1 MIN)
 TOTAL WALL CLOCK TIME=          6.0 SECONDS, CPU UTILIZATION IS   100.00%
 STEP CPU TIME =     0.00 TOTAL CPU TIME =          6.0 (      0.1 MIN)
 TOTAL WALL CLOCK TIME=          6.0 SECONDS, CPU UTILIZATION IS   100.00%

 UNITS ARE HARTREE/BOHR    E'X               E'Y               E'Z 
    1 CL              -0.000015730      -0.000016529      -0.000031544
    2 C                0.000066471      -0.000083926      -0.000257612
    3 C               -0.000883584       0.000945743       0.001408417
    4 O                0.001041888      -0.000952803      -0.001521753
    5 H               -0.000015437      -0.000073350      -0.000027424
    6 H                0.000032504       0.000003059       0.000033153
    7 H               -0.000304136       0.000094621       0.000351993
    8 O                0.000029688       0.000014815       0.000033348
    9 H                0.000012986       0.000048263       0.000035260
   10 H                0.000030730       0.000014067      -0.000010950
   11 O               -0.000132587      -0.000251059       0.000338900
   12 H                0.000126540       0.000182664      -0.000388979
   13 H                0.000010667       0.000074436       0.000037189
  $VIB   
          IVIB=   2 IATOM=   4 ICOORD=   2 E=      -62.0866164302
 -1.573017968E-05-1.652883088E-05-3.154404166E-05 6.647080388E-05-8.392648366E-05
 -2.576121284E-04-8.835836068E-04 9.457426475E-04 1.408417379E-03 1.041887893E-03
 -9.528031217E-04-1.521752710E-03-1.543675386E-05-7.335033408E-05-2.742363586E-05
  3.250398438E-05 3.059323783E-06 3.315316940E-05-3.041360551E-04 9.462148462E-05
  3.519933953E-04 2.968818658E-05 1.481540530E-05 3.334759422E-05 1.298606376E-05
  4.826286943E-05 3.526016014E-05 3.073035602E-05 1.406656003E-05-1.094991390E-05
 -1.325870460E-04-2.510591937E-04 3.389000080E-04 1.265395062E-04 1.826638873E-04
 -3.889785712E-04 1.066684741E-05 7.443578590E-05 3.718929452E-05
 -3.556679188E-01 3.426878686E+00 7.173229724E-01
1   ATOM  4
                                        -------------------
   COORD  3                             NUCLEAR COORDINATES
                                        -------------------
     VIB  2

                       ATOM             X              Y              Z

                 1  CL               2.880774       0.521130       1.761640
                 2  C                5.308278      -0.128388      -0.392496
                 3  C                5.534573       1.894072      -2.363140
                 4  O                6.680673       1.514710      -4.369031
                 5  H                4.890403      -2.008004      -1.264775
                 6  H                7.113080      -0.249671       0.708326
                 7  H                4.647970       3.750256      -1.926160
                 8  O                8.522985      -2.939601      -7.958883
                 9  H                7.915684      -1.508058      -7.010373
                10  H                7.863622      -2.652344      -9.631102
                11  O                5.916392       0.881425      -9.768107
                12  H                6.652308       1.565260     -11.285217
                13  H                6.239441       2.166117      -8.517505

 MOPAC ONE- AND TWO-ELECTRON INTEGRALS REQUIRE      2933 WORDS.
 ...... END OF ONE- AND TWO-ELECTRON INTEGRALS......
 STEP CPU TIME =     0.00 TOTAL CPU TIME =          6.0 (      0.1 MIN)
 TOTAL WALL CLOCK TIME=          6.0 SECONDS, CPU UTILIZATION IS   100.00%
 ...... END OF ONE-ELECTRON INTEGRALS ......
 STEP CPU TIME =     0.00 TOTAL CPU TIME =          6.0 (      0.1 MIN)
 TOTAL WALL CLOCK TIME=          6.0 SECONDS, CPU UTILIZATION IS   100.00%

     ----------------------------
     INPUT FOR TESSERA DEFINITION
     ----------------------------
     NTSALL  =        60     MTHALL  =         4
     MTHAUT  =         0     AUTFRE  =    2.0000
     NTSFRZ  =        60     KEEPSM  =         0
     AREAKP  =   10.0000     BONDRY  =    1.0000
     AREATL  =    0.0100

     SPHERE     INITS       METHOD
          1        60       FIXPVA
          2        60       FIXPVA
          3        60       FIXPVA
          4        60       FIXPVA
          5        60       FIXPVA
          6        60       FIXPVA
          7        60       FIXPVA
          8        60       FIXPVA
          9        60       FIXPVA
         10        60       FIXPVA
         11        60       FIXPVA
         12        60       FIXPVA
         13        60       FIXPVA

     ------------------------------
      FIXPVA TESSELLATION FOR PCM
         PEIFENG SU AND HUI LI
     UNIVERSITY OF NEBRASKA-LINCOLN
     ------------------------------


     INPUT FOR CAVITY DEFINITION 
     ---------------------------
   ATOM               COORDINATES                RADIUS       EPS
      1      1.5244      0.2758      0.9322      1.8100     78.3900
      2      2.8090     -0.0679     -0.2077      1.7000     78.3900
      3      2.9288      1.0023     -1.2505      1.7000     78.3900
      4      3.5353      0.8015     -2.3120      1.5000     78.3900
      5      2.5879     -1.0626     -0.6693      1.2000     78.3900
      6      3.7641     -0.1321      0.3748      1.2000     78.3900
      7      2.4596      1.9845     -1.0193      1.2000     78.3900
      8      4.5102     -1.5556     -4.2117      1.5000     78.3900
      9      4.1888     -0.7980     -3.7097      1.2000     78.3900
     10      4.1612     -1.4036     -5.0966      1.2000     78.3900
     11      3.1308      0.4664     -5.1691      1.5000     78.3900
     12      3.5202      0.8283     -5.9719      1.2000     78.3900
     13      3.3018      1.1463     -4.5073      1.2000     78.3900

 MEMORY USED TO GENERATE CAVITY=    262582


 TOTAL NUMBER OF SPHERES=    13
 SPHERE           CENTER  (X,Y,Z) (A)               RADIUS (A)      AREA(A*A)
     1   1.524440000   0.275770000   0.932220000   2.172000000  38.490629521
     2   2.809020000  -0.067940000  -0.207700000   2.040000000   3.657614462
     3   2.928770000   1.002300000  -1.250520000   2.040000000  12.200888671
     4   3.535260000   0.801550000  -2.311991772   1.800000000   9.009210684
     5   2.587890000  -1.062590000  -0.669290000   1.440000000   7.102740407
     6   3.764080000  -0.132120000   0.374830000   1.440000000   8.268768166
     7   2.459600000   1.984550000  -1.019280000   1.440000000   7.030775227
     8   4.510170000  -1.555570000  -4.211660000   1.800000000  20.269614416
     9   4.188800000  -0.798030000  -3.709730000   1.440000000   0.594508249
    10   4.161250000  -1.403560000  -5.096560000   1.440000000   4.865725829
    11   3.130820000   0.466430000  -5.169060000   1.800000000  12.439447789
    12   3.520250000   0.828300000  -5.971880000   1.440000000   9.845727228
    13   3.301770000   1.146260000  -4.507270000   1.440000000   4.771476217

 TOTAL NUMBER OF TESSERAE=     272
 SURFACE AREA=   138.54712686(A**2)    CAVITY VOLUME=    119.41827906 (A**3)
 STEP CPU TIME =     0.01 TOTAL CPU TIME =          6.0 (      0.1 MIN)
 TOTAL WALL CLOCK TIME=          6.0 SECONDS, CPU UTILIZATION IS   100.00%

          THE SOLUTE IS ENCLOSED IN ONE CAVITY
 DONE CHECKING SEPARATION.
 STEP CPU TIME =     0.00 TOTAL CPU TIME =          6.0 (      0.1 MIN)
 TOTAL WALL CLOCK TIME=          6.0 SECONDS, CPU UTILIZATION IS   100.00%
 
 ..... DONE SETTING UP PCM CALCULATION .....
 STEP CPU TIME =     0.00 TOTAL CPU TIME =          6.0 (      0.1 MIN)
 TOTAL WALL CLOCK TIME=          6.0 SECONDS, CPU UTILIZATION IS   100.00%

          --------------------------
               R-AM1 SCF CALCULATION
          --------------------------
     DENSITY MATRIX CONV=  1.00E-05

 ITER EX DEM     TOTAL ENERGY        E CHANGE  DENSITY CHANGE    DIIS ERROR
   1  0  0      -62.0865622660   -62.0865622660   0.002466941   0.000000000
   2  1  0      -62.0865757789    -0.0000135129   0.000920382   0.000000000
   3  2  0      -62.0865774783    -0.0000016994   0.000378113   0.000000000
   4  3  0      -62.0865777932    -0.0000003149   0.000163264   0.000000000
   5  4  0      -62.0865778611    -0.0000000680   0.000075076   0.000000000
   6  5  0      -62.0865778770    -0.0000000158   0.000038520   0.000000000
   7  6  0      -62.0865778808    -0.0000000038   0.000020059   0.000000000
   8  7  0      -62.0865778818    -0.0000000010   0.000010610   0.000000000
   9  8  0      -62.0865778821    -0.0000000003   0.000005708   0.000000000
  10  9  0      -62.0865778822    -0.0000000001   0.000003130   0.000000000

          -----------------
          DENSITY CONVERGED
          -----------------
     TIME TO FORM FOCK OPERATORS=       0.1 SECONDS (       0.0 SEC/ITER)
     TIME TO SOLVE SCF EQUATIONS=       0.0 SECONDS (       0.0 SEC/ITER)

 FINAL R-AM1 ENERGY IS      -62.0865778822 AFTER  10 ITERATIONS

 HEAT OF FORMATION IS      -182.96128 KCAL/MOL
 
  
   PCM ASC=      0.0393909626
   GCAVP  =      0.0000000000
   GDISP  =      0.0000000000
   GREP   =      0.0000000000
 ...... END OF RHF CALCULATION ......
 STEP CPU TIME =     0.12 TOTAL CPU TIME =          6.1 (      0.1 MIN)
 TOTAL WALL CLOCK TIME=          6.1 SECONDS, CPU UTILIZATION IS   100.00%
 
 .... DONE WITH PCM CONTRIBUTION TO GRADIENT ....
 STEP CPU TIME =     0.01 TOTAL CPU TIME =          6.1 (      0.1 MIN)
 TOTAL WALL CLOCK TIME=          6.1 SECONDS, CPU UTILIZATION IS   100.00%
 STEP CPU TIME =     0.00 TOTAL CPU TIME =          6.1 (      0.1 MIN)
 TOTAL WALL CLOCK TIME=          6.1 SECONDS, CPU UTILIZATION IS   100.00%

 UNITS ARE HARTREE/BOHR    E'X               E'Y               E'Z 
    1 CL              -0.000062010      -0.000060327       0.000055180
    2 C               -0.000346284      -0.000307408       0.000761138
    3 C               -0.003957915       0.001556317       0.007279944
    4 O                0.004579391      -0.001331116      -0.008475592
    5 H               -0.000016618      -0.000062978      -0.000011550
    6 H                0.000003781      -0.000015314       0.000040967
    7 H               -0.000296388       0.000157272       0.000248260
    8 O                0.000029522       0.000018433       0.000036618
    9 H                0.000023998       0.000030130       0.000030367
   10 H                0.000030377       0.000013011      -0.000012722
   11 O               -0.000127382      -0.000242529       0.000362440
   12 H                0.000126714       0.000184258      -0.000392986
   13 H                0.000012816       0.000060249       0.000077935
  $VIB   
          IVIB=   2 IATOM=   4 ICOORD=   3 E=      -62.0865778822
 -6.201047611E-05-6.032664050E-05 5.518005855E-05-3.462838254E-04-3.074079560E-04
  7.611383912E-04-3.957915383E-03 1.556317443E-03 7.279944416E-03 4.579391254E-03
 -1.331115594E-03-8.475592245E-03-1.661825967E-05-6.297757889E-05-1.154951600E-05
  3.780823984E-06-1.531446391E-05 4.096725349E-05-2.963884864E-04 1.572720195E-04
  2.482604882E-04 2.952210475E-05 1.843301254E-05 3.661799258E-05 2.399803091E-05
  3.012995391E-05 3.036657215E-05 3.037683727E-05 1.301144359E-05-1.272212202E-05
 -1.273821570E-04-2.425290191E-04 3.624399808E-04 1.267136602E-04 1.842581454E-04
 -3.929862191E-04 1.281587680E-05 6.024923426E-05 7.793494965E-05
 -3.548912543E-01 3.420282198E+00 7.222513476E-01
1   ATOM  5
                                        -------------------
   COORD  1                             NUCLEAR COORDINATES
                                        -------------------
     VIB  2

                       ATOM             X              Y              Z

                 1  CL               2.880774       0.521130       1.761640
                 2  C                5.308278      -0.128388      -0.392496
                 3  C                5.534573       1.894072      -2.363140
                 4  O                6.680673       1.514710      -4.359031
                 5  H                4.880403      -2.008004      -1.264775
                 6  H                7.113080      -0.249671       0.708326
                 7  H                4.647970       3.750256      -1.926160
                 8  O                8.522985      -2.939601      -7.958883
                 9  H                7.915684      -1.508058      -7.010373
                10  H                7.863622      -2.652344      -9.631102
                11  O                5.916392       0.881425      -9.768107
                12  H                6.652308       1.565260     -11.285217
                13  H                6.239441       2.166117      -8.517505

 MOPAC ONE- AND TWO-ELECTRON INTEGRALS REQUIRE      2933 WORDS.
 ...... END OF ONE- AND TWO-ELECTRON INTEGRALS......
 STEP CPU TIME =     0.00 TOTAL CPU TIME =          6.1 (      0.1 MIN)
 TOTAL WALL CLOCK TIME=          6.1 SECONDS, CPU UTILIZATION IS   100.00%
 ...... END OF ONE-ELECTRON INTEGRALS ......
 STEP CPU TIME =     0.00 TOTAL CPU TIME =          6.1 (      0.1 MIN)
 TOTAL WALL CLOCK TIME=          6.1 SECONDS, CPU UTILIZATION IS   100.00%

     ----------------------------
     INPUT FOR TESSERA DEFINITION
     ----------------------------
     NTSALL  =        60     MTHALL  =         4
     MTHAUT  =         0     AUTFRE  =    2.0000
     NTSFRZ  =        60     KEEPSM  =         0
     AREAKP  =   10.0000     BONDRY  =    1.0000
     AREATL  =    0.0100

     SPHERE     INITS       METHOD
          1        60       FIXPVA
          2        60       FIXPVA
          3        60       FIXPVA
          4        60       FIXPVA
          5        60       FIXPVA
          6        60       FIXPVA
          7        60       FIXPVA
          8        60       FIXPVA
          9        60       FIXPVA
         10        60       FIXPVA
         11        60       FIXPVA
         12        60       FIXPVA
         13        60       FIXPVA

     ------------------------------
      FIXPVA TESSELLATION FOR PCM
         PEIFENG SU AND HUI LI
     UNIVERSITY OF NEBRASKA-LINCOLN
     ------------------------------


     INPUT FOR CAVITY DEFINITION 
     ---------------------------
   ATOM               COORDINATES                RADIUS       EPS
      1      1.5244      0.2758      0.9322      1.8100     78.3900
      2      2.8090     -0.0679     -0.2077      1.7000     78.3900
      3      2.9288      1.0023     -1.2505      1.7000     78.3900
      4      3.5353      0.8015     -2.3067      1.5000     78.3900
      5      2.5826     -1.0626     -0.6693      1.2000     78.3900
      6      3.7641     -0.1321      0.3748      1.2000     78.3900
      7      2.4596      1.9845     -1.0193      1.2000     78.3900
      8      4.5102     -1.5556     -4.2117      1.5000     78.3900
      9      4.1888     -0.7980     -3.7097      1.2000     78.3900
     10      4.1612     -1.4036     -5.0966      1.2000     78.3900
     11      3.1308      0.4664     -5.1691      1.5000     78.3900
     12      3.5202      0.8283     -5.9719      1.2000     78.3900
     13      3.3018      1.1463     -4.5073      1.2000     78.3900

 MEMORY USED TO GENERATE CAVITY=    262582


 TOTAL NUMBER OF SPHERES=    13
 SPHERE           CENTER  (X,Y,Z) (A)               RADIUS (A)      AREA(A*A)
     1   1.524440000   0.275770000   0.932220000   2.172000000  38.490629033
     2   2.809020000  -0.067940000  -0.207700000   2.040000000   3.610546756
     3   2.928770000   1.002300000  -1.250520000   2.040000000  12.181771764
     4   3.535260000   0.801550000  -2.306700000   1.800000000   8.976562063
     5   2.582598228  -1.062590000  -0.669290000   1.440000000   7.128310109
     6   3.764080000  -0.132120000   0.374830000   1.440000000   8.266417449
     7   2.459600000   1.984550000  -1.019280000   1.440000000   7.030749145
     8   4.510170000  -1.555570000  -4.211660000   1.800000000  20.274785683
     9   4.188800000  -0.798030000  -3.709730000   1.440000000   0.594146188
    10   4.161250000  -1.403560000  -5.096560000   1.440000000   4.865725829
    11   3.130820000   0.466430000  -5.169060000   1.800000000  12.439258795
    12   3.520250000   0.828300000  -5.971880000   1.440000000   9.845727228
    13   3.301770000   1.146260000  -4.507270000   1.440000000   4.778707327

 TOTAL NUMBER OF TESSERAE=     272
 SURFACE AREA=   138.48333737(A**2)    CAVITY VOLUME=    119.39225303 (A**3)
 STEP CPU TIME =     0.00 TOTAL CPU TIME =          6.1 (      0.1 MIN)
 TOTAL WALL CLOCK TIME=          6.1 SECONDS, CPU UTILIZATION IS   100.00%

          THE SOLUTE IS ENCLOSED IN ONE CAVITY
 DONE CHECKING SEPARATION.
 STEP CPU TIME =     0.00 TOTAL CPU TIME =          6.1 (      0.1 MIN)
 TOTAL WALL CLOCK TIME=          6.1 SECONDS, CPU UTILIZATION IS   100.00%
 
 ..... DONE SETTING UP PCM CALCULATION .....
 STEP CPU TIME =     0.00 TOTAL CPU TIME =          6.1 (      0.1 MIN)
 TOTAL WALL CLOCK TIME=          6.1 SECONDS, CPU UTILIZATION IS   100.00%

          --------------------------
               R-AM1 SCF CALCULATION
          --------------------------
     DENSITY MATRIX CONV=  1.00E-05

 ITER EX DEM     TOTAL ENERGY        E CHANGE  DENSITY CHANGE    DIIS ERROR
   1  0  0      -62.0866166771   -62.0866166771   0.001045758   0.000000000
   2  1  0      -62.0866179525    -0.0000012754   0.000448757   0.000000000
   3  2  0      -62.0866181805    -0.0000002281   0.000199420   0.000000000
   4  3  0      -62.0866182279    -0.0000000473   0.000091292   0.000000000
   5  4  0      -62.0866182389    -0.0000000111   0.000042917   0.000000000
   6  5  0      -62.0866182419    -0.0000000030   0.000020679   0.000000000
   7  6  0      -62.0866182427    -0.0000000008   0.000010199   0.000000000
   8  7  0      -62.0866182429    -0.0000000002   0.000005144   0.000000000

          -----------------
          DENSITY CONVERGED
          -----------------
     TIME TO FORM FOCK OPERATORS=       0.1 SECONDS (       0.0 SEC/ITER)
     TIME TO SOLVE SCF EQUATIONS=       0.0 SECONDS (       0.0 SEC/ITER)

 FINAL R-AM1 ENERGY IS      -62.0866182429 AFTER   8 ITERATIONS

 HEAT OF FORMATION IS      -182.98660 KCAL/MOL
 
  
   PCM ASC=      0.0394079477
   GCAVP  =      0.0000000000
   GDISP  =      0.0000000000
   GREP   =      0.0000000000
 ...... END OF RHF CALCULATION ......
 STEP CPU TIME =     0.10 TOTAL CPU TIME =          6.2 (      0.1 MIN)
 TOTAL WALL CLOCK TIME=          6.2 SECONDS, CPU UTILIZATION IS   100.00%
 
 .... DONE WITH PCM CONTRIBUTION TO GRADIENT ....
 STEP CPU TIME =     0.00 TOTAL CPU TIME =          6.2 (      0.1 MIN)
 TOTAL WALL CLOCK TIME=          6.2 SECONDS, CPU UTILIZATION IS   100.00%
 STEP CPU TIME =     0.00 TOTAL CPU TIME =          6.2 (      0.1 MIN)
 TOTAL WALL CLOCK TIME=          6.2 SECONDS, CPU UTILIZATION IS   100.00%

 UNITS ARE HARTREE/BOHR    E'X               E'Y               E'Z 
    1 CL               0.000017347      -0.000187973      -0.000165618
    2 C                0.000405248       0.000453221       0.000303916
    3 C               -0.000126290       0.000118515       0.000061623
    4 O                0.000089615       0.000003110      -0.000158179
    5 H               -0.000570063      -0.000627482      -0.000248554
    6 H                0.000118234       0.000187130       0.000175875
    7 H               -0.000024780       0.000010288       0.000006426
    8 O                0.000033775       0.000006039       0.000020765
    9 H                0.000019347       0.000020538       0.000014857
   10 H                0.000031551       0.000014231      -0.000007304
   11 O               -0.000134947      -0.000249150       0.000331808
   12 H                0.000126874       0.000182839      -0.000387790
   13 H                0.000014089       0.000068695       0.000052175
  $VIB   
          IVIB=   2 IATOM=   5 ICOORD=   1 E=      -62.0866182429
  1.734700613E-05-1.879729343E-04-1.656177362E-04 4.052476645E-04 4.532205608E-04
  3.039157268E-04-1.262901634E-04 1.185151642E-04 6.162311239E-05 8.961547573E-05
  3.109777380E-06-1.581790702E-04-5.700630208E-04-6.274815655E-04-2.485539060E-04
  1.182342158E-04 1.871297121E-04 1.758754746E-04-2.478028505E-05 1.028815929E-05
  6.425844423E-06 3.377475592E-05 6.038720234E-06 2.076536898E-05 1.934701391E-05
  2.053808158E-05 1.485662355E-05 3.155108267E-05 1.423064852E-05-7.303852361E-06
 -1.349469328E-04-2.491501514E-04 3.318082893E-04 1.268743351E-04 1.828390629E-04
 -3.877904545E-04 1.408885235E-05 6.869476411E-05 5.217457921E-05
 -3.608214752E-01 3.419757886E+00 7.167636141E-01
1   ATOM  5
                                        -------------------
   COORD  2                             NUCLEAR COORDINATES
                                        -------------------
     VIB  2

                       ATOM             X              Y              Z

                 1  CL               2.880774       0.521130       1.761640
                 2  C                5.308278      -0.128388      -0.392496
                 3  C                5.534573       1.894072      -2.363140
                 4  O                6.680673       1.514710      -4.359031
                 5  H                4.890403      -2.018004      -1.264775
                 6  H                7.113080      -0.249671       0.708326
                 7  H                4.647970       3.750256      -1.926160
                 8  O                8.522985      -2.939601      -7.958883
                 9  H                7.915684      -1.508058      -7.010373
                10  H                7.863622      -2.652344      -9.631102
                11  O                5.916392       0.881425      -9.768107
                12  H                6.652308       1.565260     -11.285217
                13  H                6.239441       2.166117      -8.517505

 MOPAC ONE- AND TWO-ELECTRON INTEGRALS REQUIRE      2933 WORDS.
 ...... END OF ONE- AND TWO-ELECTRON INTEGRALS......
 STEP CPU TIME =     0.00 TOTAL CPU TIME =          6.2 (      0.1 MIN)
 TOTAL WALL CLOCK TIME=          6.2 SECONDS, CPU UTILIZATION IS   100.00%
 ...... END OF ONE-ELECTRON INTEGRALS ......
 STEP CPU TIME =     0.00 TOTAL CPU TIME =          6.2 (      0.1 MIN)
 TOTAL WALL CLOCK TIME=          6.2 SECONDS, CPU UTILIZATION IS   100.00%

     ----------------------------
     INPUT FOR TESSERA DEFINITION
     ----------------------------
     NTSALL  =        60     MTHALL  =         4
     MTHAUT  =         0     AUTFRE  =    2.0000
     NTSFRZ  =        60     KEEPSM  =         0
     AREAKP  =   10.0000     BONDRY  =    1.0000
     AREATL  =    0.0100

     SPHERE     INITS       METHOD
          1        60       FIXPVA
          2        60       FIXPVA
          3        60       FIXPVA
          4        60       FIXPVA
          5        60       FIXPVA
          6        60       FIXPVA
          7        60       FIXPVA
          8        60       FIXPVA
          9        60       FIXPVA
         10        60       FIXPVA
         11        60       FIXPVA
         12        60       FIXPVA
         13        60       FIXPVA

     ------------------------------
      FIXPVA TESSELLATION FOR PCM
         PEIFENG SU AND HUI LI
     UNIVERSITY OF NEBRASKA-LINCOLN
     ------------------------------


     INPUT FOR CAVITY DEFINITION 
     ---------------------------
   ATOM               COORDINATES                RADIUS       EPS
      1      1.5244      0.2758      0.9322      1.8100     78.3900
      2      2.8090     -0.0679     -0.2077      1.7000     78.3900
      3      2.9288      1.0023     -1.2505      1.7000     78.3900
      4      3.5353      0.8015     -2.3067      1.5000     78.3900
      5      2.5879     -1.0679     -0.6693      1.2000     78.3900
      6      3.7641     -0.1321      0.3748      1.2000     78.3900
      7      2.4596      1.9845     -1.0193      1.2000     78.3900
      8      4.5102     -1.5556     -4.2117      1.5000     78.3900
      9      4.1888     -0.7980     -3.7097      1.2000     78.3900
     10      4.1612     -1.4036     -5.0966      1.2000     78.3900
     11      3.1308      0.4664     -5.1691      1.5000     78.3900
     12      3.5202      0.8283     -5.9719      1.2000     78.3900
     13      3.3018      1.1463     -4.5073      1.2000     78.3900

 MEMORY USED TO GENERATE CAVITY=    262582


 TOTAL NUMBER OF SPHERES=    13
 SPHERE           CENTER  (X,Y,Z) (A)               RADIUS (A)      AREA(A*A)
     1   1.524440000   0.275770000   0.932220000   2.172000000  38.490629494
     2   2.809020000  -0.067940000  -0.207700000   2.040000000   3.663072571
     3   2.928770000   1.002300000  -1.250520000   2.040000000  12.181771764
     4   3.535260000   0.801550000  -2.306700000   1.800000000   8.974343803
     5   2.587890000  -1.067881772  -0.669290000   1.440000000   7.131874180
     6   3.764080000  -0.132120000   0.374830000   1.440000000   8.266185034
     7   2.459600000   1.984550000  -1.019280000   1.440000000   7.030749145
     8   4.510170000  -1.555570000  -4.211660000   1.800000000  20.264340907
     9   4.188800000  -0.798030000  -3.709730000   1.440000000   0.594065673
    10   4.161250000  -1.403560000  -5.096560000   1.440000000   4.865725829
    11   3.130820000   0.466430000  -5.169060000   1.800000000  12.439258795
    12   3.520250000   0.828300000  -5.971880000   1.440000000   9.845727228
    13   3.301770000   1.146260000  -4.507270000   1.440000000   4.778707327

 TOTAL NUMBER OF TESSERAE=     272
 SURFACE AREA=   138.52645175(A**2)    CAVITY VOLUME=    119.40222308 (A**3)
 STEP CPU TIME =     0.00 TOTAL CPU TIME =          6.2 (      0.1 MIN)
 TOTAL WALL CLOCK TIME=          6.2 SECONDS, CPU UTILIZATION IS   100.00%

          THE SOLUTE IS ENCLOSED IN ONE CAVITY
 DONE CHECKING SEPARATION.
 STEP CPU TIME =     0.00 TOTAL CPU TIME =          6.2 (      0.1 MIN)
 TOTAL WALL CLOCK TIME=          6.2 SECONDS, CPU UTILIZATION IS   100.00%
 
 ..... DONE SETTING UP PCM CALCULATION .....
 STEP CPU TIME =     0.00 TOTAL CPU TIME =          6.2 (      0.1 MIN)
 TOTAL WALL CLOCK TIME=          6.2 SECONDS, CPU UTILIZATION IS   100.00%

          --------------------------
               R-AM1 SCF CALCULATION
          --------------------------
     DENSITY MATRIX CONV=  1.00E-05

 ITER EX DEM     TOTAL ENERGY        E CHANGE  DENSITY CHANGE    DIIS ERROR
   1  0  0      -62.0866051376   -62.0866051376   0.000703960   0.000000000
   2  1  0      -62.0866066433    -0.0000015057   0.000177274   0.000000000
   3  2  0      -62.0866067694    -0.0000001260   0.000069950   0.000000000
   4  3  0      -62.0866067871    -0.0000000178   0.000033979   0.000000000
   5  4  0      -62.0866067907    -0.0000000036   0.000016440   0.000000000
   6  5  0      -62.0866067916    -0.0000000009   0.000009044   0.000000000
   7  6  0      -62.0866067920    -0.0000000003   0.000006769   0.000000000

          -----------------
          DENSITY CONVERGED
          -----------------
     TIME TO FORM FOCK OPERATORS=       0.1 SECONDS (       0.0 SEC/ITER)
     TIME TO SOLVE SCF EQUATIONS=       0.0 SECONDS (       0.0 SEC/ITER)

 FINAL R-AM1 ENERGY IS      -62.0866067920 AFTER   7 ITERATIONS

 HEAT OF FORMATION IS      -182.97942 KCAL/MOL
 
  
   PCM ASC=      0.0393928889
   GCAVP  =      0.0000000000
   GDISP  =      0.0000000000
   GREP   =      0.0000000000
 ...... END OF RHF CALCULATION ......
 STEP CPU TIME =     0.09 TOTAL CPU TIME =          6.3 (      0.1 MIN)
 TOTAL WALL CLOCK TIME=          6.3 SECONDS, CPU UTILIZATION IS   100.00%
 
 .... DONE WITH PCM CONTRIBUTION TO GRADIENT ....
 STEP CPU TIME =     0.00 TOTAL CPU TIME =          6.3 (      0.1 MIN)
 TOTAL WALL CLOCK TIME=          6.3 SECONDS, CPU UTILIZATION IS   100.00%
 STEP CPU TIME =     0.00 TOTAL CPU TIME =          6.3 (      0.1 MIN)
 TOTAL WALL CLOCK TIME=          6.3 SECONDS, CPU UTILIZATION IS   100.00%

 UNITS ARE HARTREE/BOHR    E'X               E'Y               E'Z 
    1 CL              -0.000085508       0.000022751       0.000098160
    2 C                0.000406833       0.002274702       0.000970720
    3 C                0.000003086       0.000417561       0.000004037
    4 O                0.000075939       0.000003827      -0.000145679
    5 H               -0.000557898      -0.002792135      -0.001042935
    6 H                0.000098410       0.000011559       0.000096700
    7 H               -0.000031473       0.000017985      -0.000005485
    8 O                0.000032880       0.000006307       0.000023257
    9 H                0.000020175       0.000020696       0.000012977
   10 H                0.000031520       0.000014128      -0.000007717
   11 O               -0.000134656      -0.000249373       0.000332467
   12 H                0.000126839       0.000182862      -0.000387944
   13 H                0.000013852       0.000069129       0.000051442
  $VIB   
          IVIB=   2 IATOM=   5 ICOORD=   2 E=      -62.0866067920
 -8.550765362E-05 2.275096492E-05 9.815957292E-05 4.068333112E-04 2.274702088E-03
  9.707204495E-04 3.085689132E-06 4.175606081E-04 4.036666825E-06 7.593915139E-05
  3.827466621E-06-1.456791260E-04-5.578982700E-04-2.792134656E-03-1.042935258E-03
  9.841004717E-05 1.155870272E-05 9.669968902E-05-3.147296085E-05 1.798484859E-05
 -5.485149278E-06 3.288023854E-05 6.307260458E-06 2.325738362E-05 2.017498145E-05
  2.069598827E-05 1.297711404E-05 3.151993552E-05 1.412812743E-05-7.716524209E-06
 -1.346557655E-04-2.493725293E-04 3.324673225E-04 1.268388022E-04 1.828623603E-04
 -3.879441055E-04 1.385249339E-05 6.912877022E-05 5.144196441E-05
 -3.550712997E-01 3.416276961E+00 7.183840776E-01
1   ATOM  5
                                        -------------------
   COORD  3                             NUCLEAR COORDINATES
                                        -------------------
     VIB  2

                       ATOM             X              Y              Z

                 1  CL               2.880774       0.521130       1.761640
                 2  C                5.308278      -0.128388      -0.392496
                 3  C                5.534573       1.894072      -2.363140
                 4  O                6.680673       1.514710      -4.359031
                 5  H                4.890403      -2.008004      -1.274775
                 6  H                7.113080      -0.249671       0.708326
                 7  H                4.647970       3.750256      -1.926160
                 8  O                8.522985      -2.939601      -7.958883
                 9  H                7.915684      -1.508058      -7.010373
                10  H                7.863622      -2.652344      -9.631102
                11  O                5.916392       0.881425      -9.768107
                12  H                6.652308       1.565260     -11.285217
                13  H                6.239441       2.166117      -8.517505

 MOPAC ONE- AND TWO-ELECTRON INTEGRALS REQUIRE      2933 WORDS.
 ...... END OF ONE- AND TWO-ELECTRON INTEGRALS......
 STEP CPU TIME =     0.00 TOTAL CPU TIME =          6.3 (      0.1 MIN)
 TOTAL WALL CLOCK TIME=          6.3 SECONDS, CPU UTILIZATION IS   100.00%
 ...... END OF ONE-ELECTRON INTEGRALS ......
 STEP CPU TIME =     0.00 TOTAL CPU TIME =          6.3 (      0.1 MIN)
 TOTAL WALL CLOCK TIME=          6.3 SECONDS, CPU UTILIZATION IS   100.00%

     ----------------------------
     INPUT FOR TESSERA DEFINITION
     ----------------------------
     NTSALL  =        60     MTHALL  =         4
     MTHAUT  =         0     AUTFRE  =    2.0000
     NTSFRZ  =        60     KEEPSM  =         0
     AREAKP  =   10.0000     BONDRY  =    1.0000
     AREATL  =    0.0100

     SPHERE     INITS       METHOD
          1        60       FIXPVA
          2        60       FIXPVA
          3        60       FIXPVA
          4        60       FIXPVA
          5        60       FIXPVA
          6        60       FIXPVA
          7        60       FIXPVA
          8        60       FIXPVA
          9        60       FIXPVA
         10        60       FIXPVA
         11        60       FIXPVA
         12        60       FIXPVA
         13        60       FIXPVA

     ------------------------------
      FIXPVA TESSELLATION FOR PCM
         PEIFENG SU AND HUI LI
     UNIVERSITY OF NEBRASKA-LINCOLN
     ------------------------------


     INPUT FOR CAVITY DEFINITION 
     ---------------------------
   ATOM               COORDINATES                RADIUS       EPS
      1      1.5244      0.2758      0.9322      1.8100     78.3900
      2      2.8090     -0.0679     -0.2077      1.7000     78.3900
      3      2.9288      1.0023     -1.2505      1.7000     78.3900
      4      3.5353      0.8015     -2.3067      1.5000     78.3900
      5      2.5879     -1.0626     -0.6746      1.2000     78.3900
      6      3.7641     -0.1321      0.3748      1.2000     78.3900
      7      2.4596      1.9845     -1.0193      1.2000     78.3900
      8      4.5102     -1.5556     -4.2117      1.5000     78.3900
      9      4.1888     -0.7980     -3.7097      1.2000     78.3900
     10      4.1612     -1.4036     -5.0966      1.2000     78.3900
     11      3.1308      0.4664     -5.1691      1.5000     78.3900
     12      3.5202      0.8283     -5.9719      1.2000     78.3900
     13      3.3018      1.1463     -4.5073      1.2000     78.3900

 MEMORY USED TO GENERATE CAVITY=    262582


 TOTAL NUMBER OF SPHERES=    13
 SPHERE           CENTER  (X,Y,Z) (A)               RADIUS (A)      AREA(A*A)
     1   1.524440000   0.275770000   0.932220000   2.172000000  38.490629518
     2   2.809020000  -0.067940000  -0.207700000   2.040000000   3.634749914
     3   2.928770000   1.002300000  -1.250520000   2.040000000  12.181771764
     4   3.535260000   0.801550000  -2.306700000   1.800000000   8.973259281
     5   2.587890000  -1.062590000  -0.674581772   1.440000000   7.121290629
     6   3.764080000  -0.132120000   0.374830000   1.440000000   8.266308573
     7   2.459600000   1.984550000  -1.019280000   1.440000000   7.030749145
     8   4.510170000  -1.555570000  -4.211660000   1.800000000  20.262345028
     9   4.188800000  -0.798030000  -3.709730000   1.440000000   0.593988354
    10   4.161250000  -1.403560000  -5.096560000   1.440000000   4.865725829
    11   3.130820000   0.466430000  -5.169060000   1.800000000  12.439258795
    12   3.520250000   0.828300000  -5.971880000   1.440000000   9.845727228
    13   3.301770000   1.146260000  -4.507270000   1.440000000   4.778707327

 TOTAL NUMBER OF TESSERAE=     271
 SURFACE AREA=   138.48451139(A**2)    CAVITY VOLUME=    119.39541832 (A**3)
 STEP CPU TIME =     0.00 TOTAL CPU TIME =          6.3 (      0.1 MIN)
 TOTAL WALL CLOCK TIME=          6.3 SECONDS, CPU UTILIZATION IS   100.00%

          THE SOLUTE IS ENCLOSED IN ONE CAVITY
 DONE CHECKING SEPARATION.
 STEP CPU TIME =     0.00 TOTAL CPU TIME =          6.3 (      0.1 MIN)
 TOTAL WALL CLOCK TIME=          6.3 SECONDS, CPU UTILIZATION IS   100.00%
 
 ..... DONE SETTING UP PCM CALCULATION .....
 STEP CPU TIME =     0.00 TOTAL CPU TIME =          6.3 (      0.1 MIN)
 TOTAL WALL CLOCK TIME=          6.3 SECONDS, CPU UTILIZATION IS   100.00%

          --------------------------
               R-AM1 SCF CALCULATION
          --------------------------
     DENSITY MATRIX CONV=  1.00E-05

 ITER EX DEM     TOTAL ENERGY        E CHANGE  DENSITY CHANGE    DIIS ERROR
   1  0  0      -62.0866145965   -62.0866145965   0.000898839   0.000000000
   2  1  0      -62.0866159125    -0.0000013160   0.000372534   0.000000000
   3  2  0      -62.0866161071    -0.0000001946   0.000163367   0.000000000
   4  3  0      -62.0866161450    -0.0000000379   0.000074861   0.000000000
   5  4  0      -62.0866161538    -0.0000000088   0.000035532   0.000000000
   6  5  0      -62.0866161561    -0.0000000023   0.000017370   0.000000000
   7  6  0      -62.0866161568    -0.0000000007   0.000008717   0.000000000
   8  7  0      -62.0866161570    -0.0000000002   0.000004483   0.000000000

          -----------------
          DENSITY CONVERGED
          -----------------
     TIME TO FORM FOCK OPERATORS=       0.1 SECONDS (       0.0 SEC/ITER)
     TIME TO SOLVE SCF EQUATIONS=       0.0 SECONDS (       0.0 SEC/ITER)

 FINAL R-AM1 ENERGY IS      -62.0866161570 AFTER   8 ITERATIONS

 HEAT OF FORMATION IS      -182.98529 KCAL/MOL
 
  
   PCM ASC=      0.0394014298
   GCAVP  =      0.0000000000
   GDISP  =      0.0000000000
   GREP   =      0.0000000000
 ...... END OF RHF CALCULATION ......
 STEP CPU TIME =     0.10 TOTAL CPU TIME =          6.4 (      0.1 MIN)
 TOTAL WALL CLOCK TIME=          6.4 SECONDS, CPU UTILIZATION IS   100.00%
 
 .... DONE WITH PCM CONTRIBUTION TO GRADIENT ....
 STEP CPU TIME =     0.01 TOTAL CPU TIME =          6.4 (      0.1 MIN)
 TOTAL WALL CLOCK TIME=          6.4 SECONDS, CPU UTILIZATION IS   100.00%
 STEP CPU TIME =     0.00 TOTAL CPU TIME =          6.4 (      0.1 MIN)
 TOTAL WALL CLOCK TIME=          6.4 SECONDS, CPU UTILIZATION IS   100.00%

 UNITS ARE HARTREE/BOHR    E'X               E'Y               E'Z 
    1 CL              -0.000136472       0.000131981       0.000144030
    2 C                0.000184215       0.000869623       0.000843717
    3 C               -0.000112789      -0.000105716      -0.000035594
    4 O                0.000078529       0.000008945      -0.000135017
    5 H               -0.000228941      -0.001095778      -0.000969308
    6 H                0.000142816       0.000142411       0.000101154
    7 H               -0.000017719       0.000004338       0.000026710
    8 O                0.000032689       0.000006400       0.000023065
    9 H                0.000020088       0.000021088       0.000012858
   10 H                0.000031560       0.000014118      -0.000007601
   11 O               -0.000134782      -0.000249327       0.000332351
   12 H                0.000126855       0.000182868      -0.000387915
   13 H                0.000013952       0.000069048       0.000051550
  $VIB   
          IVIB=   2 IATOM=   5 ICOORD=   3 E=      -62.0866161570
 -1.364724907E-04 1.319807442E-04 1.440304936E-04 1.842147410E-04 8.696234917E-04
  8.437171933E-04-1.127891985E-04-1.057158454E-04-3.559442993E-05 7.852897572E-05
  8.945293192E-06-1.350170752E-04-2.289409062E-04-1.095777746E-03-9.693082726E-04
  1.428156308E-04 1.424109135E-04 1.011543345E-04-1.771919376E-05 4.337879043E-06
  2.671039658E-05 3.268878590E-05 6.399733290E-06 2.306454564E-05 2.008771401E-05
  2.108781818E-05 1.285770404E-05 3.156045904E-05 1.411790415E-05-7.601038086E-06
 -1.347818196E-04-2.493266812E-04 3.323510592E-04 1.268548829E-04 1.828680361E-04
 -3.879149536E-04 1.395241931E-05 6.904845940E-05 5.155004245E-05
 -3.560951944E-01 3.420202943E+00 7.116176128E-01
1   ATOM  6
                                        -------------------
   COORD  1                             NUCLEAR COORDINATES
                                        -------------------
     VIB  2

                       ATOM             X              Y              Z

                 1  CL               2.880774       0.521130       1.761640
                 2  C                5.308278      -0.128388      -0.392496
                 3  C                5.534573       1.894072      -2.363140
                 4  O                6.680673       1.514710      -4.359031
                 5  H                4.890403      -2.008004      -1.264775
                 6  H                7.103080      -0.249671       0.708326
                 7  H                4.647970       3.750256      -1.926160
                 8  O                8.522985      -2.939601      -7.958883
                 9  H                7.915684      -1.508058      -7.010373
                10  H                7.863622      -2.652344      -9.631102
                11  O                5.916392       0.881425      -9.768107
                12  H                6.652308       1.565260     -11.285217
                13  H                6.239441       2.166117      -8.517505

 MOPAC ONE- AND TWO-ELECTRON INTEGRALS REQUIRE      2933 WORDS.
 ...... END OF ONE- AND TWO-ELECTRON INTEGRALS......
 STEP CPU TIME =     0.00 TOTAL CPU TIME =          6.4 (      0.1 MIN)
 TOTAL WALL CLOCK TIME=          6.4 SECONDS, CPU UTILIZATION IS   100.00%
 ...... END OF ONE-ELECTRON INTEGRALS ......
 STEP CPU TIME =     0.00 TOTAL CPU TIME =          6.4 (      0.1 MIN)
 TOTAL WALL CLOCK TIME=          6.4 SECONDS, CPU UTILIZATION IS   100.00%

     ----------------------------
     INPUT FOR TESSERA DEFINITION
     ----------------------------
     NTSALL  =        60     MTHALL  =         4
     MTHAUT  =         0     AUTFRE  =    2.0000
     NTSFRZ  =        60     KEEPSM  =         0
     AREAKP  =   10.0000     BONDRY  =    1.0000
     AREATL  =    0.0100

     SPHERE     INITS       METHOD
          1        60       FIXPVA
          2        60       FIXPVA
          3        60       FIXPVA
          4        60       FIXPVA
          5        60       FIXPVA
          6        60       FIXPVA
          7        60       FIXPVA
          8        60       FIXPVA
          9        60       FIXPVA
         10        60       FIXPVA
         11        60       FIXPVA
         12        60       FIXPVA
         13        60       FIXPVA

     ------------------------------
      FIXPVA TESSELLATION FOR PCM
         PEIFENG SU AND HUI LI
     UNIVERSITY OF NEBRASKA-LINCOLN
     ------------------------------


     INPUT FOR CAVITY DEFINITION 
     ---------------------------
   ATOM               COORDINATES                RADIUS       EPS
      1      1.5244      0.2758      0.9322      1.8100     78.3900
      2      2.8090     -0.0679     -0.2077      1.7000     78.3900
      3      2.9288      1.0023     -1.2505      1.7000     78.3900
      4      3.5353      0.8015     -2.3067      1.5000     78.3900
      5      2.5879     -1.0626     -0.6693      1.2000     78.3900
      6      3.7588     -0.1321      0.3748      1.2000     78.3900
      7      2.4596      1.9845     -1.0193      1.2000     78.3900
      8      4.5102     -1.5556     -4.2117      1.5000     78.3900
      9      4.1888     -0.7980     -3.7097      1.2000     78.3900
     10      4.1612     -1.4036     -5.0966      1.2000     78.3900
     11      3.1308      0.4664     -5.1691      1.5000     78.3900
     12      3.5202      0.8283     -5.9719      1.2000     78.3900
     13      3.3018      1.1463     -4.5073      1.2000     78.3900

 MEMORY USED TO GENERATE CAVITY=    262582


 TOTAL NUMBER OF SPHERES=    13
 SPHERE           CENTER  (X,Y,Z) (A)               RADIUS (A)      AREA(A*A)
     1   1.524440000   0.275770000   0.932220000   2.172000000  38.490629521
     2   2.809020000  -0.067940000  -0.207700000   2.040000000   3.657889620
     3   2.928770000   1.002300000  -1.250520000   2.040000000  12.181771764
     4   3.535260000   0.801550000  -2.306700000   1.800000000   8.981904239
     5   2.587890000  -1.062590000  -0.669290000   1.440000000   7.103966560
     6   3.758788228  -0.132120000   0.374830000   1.440000000   8.220257001
     7   2.459600000   1.984550000  -1.019280000   1.440000000   7.030749145
     8   4.510170000  -1.555570000  -4.211660000   1.800000000  20.269614417
     9   4.188800000  -0.798030000  -3.709730000   1.440000000   0.594081452
    10   4.161250000  -1.403560000  -5.096560000   1.440000000   4.865725829
    11   3.130820000   0.466430000  -5.169060000   1.800000000  12.439258795
    12   3.520250000   0.828300000  -5.971880000   1.440000000   9.845727228
    13   3.301770000   1.146260000  -4.507270000   1.440000000   4.778707327

 TOTAL NUMBER OF TESSERAE=     272
 SURFACE AREA=   138.46028290(A**2)    CAVITY VOLUME=    119.32406041 (A**3)
 STEP CPU TIME =     0.00 TOTAL CPU TIME =          6.4 (      0.1 MIN)
 TOTAL WALL CLOCK TIME=          6.4 SECONDS, CPU UTILIZATION IS   100.00%

          THE SOLUTE IS ENCLOSED IN ONE CAVITY
 DONE CHECKING SEPARATION.
 STEP CPU TIME =     0.00 TOTAL CPU TIME =          6.4 (      0.1 MIN)
 TOTAL WALL CLOCK TIME=          6.4 SECONDS, CPU UTILIZATION IS   100.00%
 
 ..... DONE SETTING UP PCM CALCULATION .....
 STEP CPU TIME =     0.00 TOTAL CPU TIME =          6.4 (      0.1 MIN)
 TOTAL WALL CLOCK TIME=          6.4 SECONDS, CPU UTILIZATION IS   100.00%

          --------------------------
               R-AM1 SCF CALCULATION
          --------------------------
     DENSITY MATRIX CONV=  1.00E-05

 ITER EX DEM     TOTAL ENERGY        E CHANGE  DENSITY CHANGE    DIIS ERROR
   1  0  0      -62.0866071349   -62.0866071349   0.000706268   0.000000000
   2  1  0      -62.0866087120    -0.0000015771   0.000179953   0.000000000
   3  2  0      -62.0866088538    -0.0000001418   0.000077138   0.000000000
   4  3  0      -62.0866088745    -0.0000000207   0.000039823   0.000000000
   5  4  0      -62.0866088790    -0.0000000045   0.000024201   0.000000000
   6  5  0      -62.0866088803    -0.0000000013   0.000015050   0.000000000
   7  6  0      -62.0866088807    -0.0000000004   0.000009287   0.000000000
   8  7  0      -62.0866088808    -0.0000000002   0.000005699   0.000000000

          -----------------
          DENSITY CONVERGED
          -----------------
     TIME TO FORM FOCK OPERATORS=       0.1 SECONDS (       0.0 SEC/ITER)
     TIME TO SOLVE SCF EQUATIONS=       0.0 SECONDS (       0.0 SEC/ITER)

 FINAL R-AM1 ENERGY IS      -62.0866088808 AFTER   8 ITERATIONS

 HEAT OF FORMATION IS      -182.98073 KCAL/MOL
 
  
   PCM ASC=      0.0394220858
   GCAVP  =      0.0000000000
   GDISP  =      0.0000000000
   GREP   =      0.0000000000
 ...... END OF RHF CALCULATION ......
 STEP CPU TIME =     0.10 TOTAL CPU TIME =          6.5 (      0.1 MIN)
 TOTAL WALL CLOCK TIME=          6.5 SECONDS, CPU UTILIZATION IS   100.00%
 
 .... DONE WITH PCM CONTRIBUTION TO GRADIENT ....
 STEP CPU TIME =     0.02 TOTAL CPU TIME =          6.5 (      0.1 MIN)
 TOTAL WALL CLOCK TIME=          6.5 SECONDS, CPU UTILIZATION IS   100.00%
 STEP CPU TIME =     0.00 TOTAL CPU TIME =          6.5 (      0.1 MIN)
 TOTAL WALL CLOCK TIME=          6.5 SECONDS, CPU UTILIZATION IS   100.00%

 UNITS ARE HARTREE/BOHR    E'X               E'Y               E'Z 
    1 CL               0.000240215      -0.000079026      -0.000034546
    2 C                0.002106986      -0.000106829       0.001173293
    3 C               -0.000098618      -0.000004878       0.000187799
    4 O                0.000102021       0.000006376      -0.000182574
    5 H                0.000073412      -0.000004889       0.000080888
    6 H               -0.002493908       0.000129749      -0.001255414
    7 H               -0.000020311       0.000015937       0.000005348
    8 O                0.000033549       0.000005789       0.000020968
    9 H                0.000019006       0.000021545       0.000014903
   10 H                0.000031572       0.000014209      -0.000007172
   11 O               -0.000135064      -0.000249108       0.000331163
   12 H                0.000126888       0.000182828      -0.000387650
   13 H                0.000014252       0.000068299       0.000052997
  $VIB   
          IVIB=   2 IATOM=   6 ICOORD=   1 E=      -62.0866088808
  2.402149652E-04-7.902648243E-05-3.454635516E-05 2.106985692E-03-1.068294721E-04
  1.173292572E-03-9.861767215E-05-4.878123375E-06 1.877988708E-04 1.020205925E-04
  6.376114505E-06-1.825744116E-04 7.341219897E-05-4.889457380E-06 8.088785713E-05
 -2.493908244E-03 1.297491179E-04-1.255414062E-03-2.031055324E-05 1.593706526E-05
  5.347865450E-06 3.354939437E-05 5.789047010E-06 2.096760817E-05 1.900605951E-05
  2.154475780E-05 1.490256534E-05 3.157173962E-05 1.420875776E-05-7.172191254E-06
 -1.350643381E-04-2.491084271E-04 3.311628311E-04 1.268883603E-04 1.828280381E-04
 -3.876502831E-04 1.425180486E-05 6.829906397E-05 5.299713282E-05
 -3.585206572E-01 3.417848493E+00 7.181952798E-01
1   ATOM  6
                                        -------------------
   COORD  2                             NUCLEAR COORDINATES
                                        -------------------
     VIB  2

                       ATOM             X              Y              Z

                 1  CL               2.880774       0.521130       1.761640
                 2  C                5.308278      -0.128388      -0.392496
                 3  C                5.534573       1.894072      -2.363140
                 4  O                6.680673       1.514710      -4.359031
                 5  H                4.890403      -2.008004      -1.264775
                 6  H                7.113080      -0.259671       0.708326
                 7  H                4.647970       3.750256      -1.926160
                 8  O                8.522985      -2.939601      -7.958883
                 9  H                7.915684      -1.508058      -7.010373
                10  H                7.863622      -2.652344      -9.631102
                11  O                5.916392       0.881425      -9.768107
                12  H                6.652308       1.565260     -11.285217
                13  H                6.239441       2.166117      -8.517505

 MOPAC ONE- AND TWO-ELECTRON INTEGRALS REQUIRE      2933 WORDS.
 ...... END OF ONE- AND TWO-ELECTRON INTEGRALS......
 STEP CPU TIME =     0.00 TOTAL CPU TIME =          6.5 (      0.1 MIN)
 TOTAL WALL CLOCK TIME=          6.5 SECONDS, CPU UTILIZATION IS   100.00%
 ...... END OF ONE-ELECTRON INTEGRALS ......
 STEP CPU TIME =     0.00 TOTAL CPU TIME =          6.5 (      0.1 MIN)
 TOTAL WALL CLOCK TIME=          6.5 SECONDS, CPU UTILIZATION IS   100.00%

     ----------------------------
     INPUT FOR TESSERA DEFINITION
     ----------------------------
     NTSALL  =        60     MTHALL  =         4
     MTHAUT  =         0     AUTFRE  =    2.0000
     NTSFRZ  =        60     KEEPSM  =         0
     AREAKP  =   10.0000     BONDRY  =    1.0000
     AREATL  =    0.0100

     SPHERE     INITS       METHOD
          1        60       FIXPVA
          2        60       FIXPVA
          3        60       FIXPVA
          4        60       FIXPVA
          5        60       FIXPVA
          6        60       FIXPVA
          7        60       FIXPVA
          8        60       FIXPVA
          9        60       FIXPVA
         10        60       FIXPVA
         11        60       FIXPVA
         12        60       FIXPVA
         13        60       FIXPVA

     ------------------------------
      FIXPVA TESSELLATION FOR PCM
         PEIFENG SU AND HUI LI
     UNIVERSITY OF NEBRASKA-LINCOLN
     ------------------------------


     INPUT FOR CAVITY DEFINITION 
     ---------------------------
   ATOM               COORDINATES                RADIUS       EPS
      1      1.5244      0.2758      0.9322      1.8100     78.3900
      2      2.8090     -0.0679     -0.2077      1.7000     78.3900
      3      2.9288      1.0023     -1.2505      1.7000     78.3900
      4      3.5353      0.8015     -2.3067      1.5000     78.3900
      5      2.5879     -1.0626     -0.6693      1.2000     78.3900
      6      3.7641     -0.1374      0.3748      1.2000     78.3900
      7      2.4596      1.9845     -1.0193      1.2000     78.3900
      8      4.5102     -1.5556     -4.2117      1.5000     78.3900
      9      4.1888     -0.7980     -3.7097      1.2000     78.3900
     10      4.1612     -1.4036     -5.0966      1.2000     78.3900
     11      3.1308      0.4664     -5.1691      1.5000     78.3900
     12      3.5202      0.8283     -5.9719      1.2000     78.3900
     13      3.3018      1.1463     -4.5073      1.2000     78.3900

 MEMORY USED TO GENERATE CAVITY=    262582


 TOTAL NUMBER OF SPHERES=    13
 SPHERE           CENTER  (X,Y,Z) (A)               RADIUS (A)      AREA(A*A)
     1   1.524440000   0.275770000   0.932220000   2.172000000  38.490629521
     2   2.809020000  -0.067940000  -0.207700000   2.040000000   3.657338131
     3   2.928770000   1.002300000  -1.250520000   2.040000000  12.181771764
     4   3.535260000   0.801550000  -2.306700000   1.800000000   8.977992678
     5   2.587890000  -1.062590000  -0.669290000   1.440000000   7.103966089
     6   3.764080000  -0.137411772   0.374830000   1.440000000   8.258320857
     7   2.459600000   1.984550000  -1.019280000   1.440000000   7.030749145
     8   4.510170000  -1.555570000  -4.211660000   1.800000000  20.269614417
     9   4.188800000  -0.798030000  -3.709730000   1.440000000   0.594081452
    10   4.161250000  -1.403560000  -5.096560000   1.440000000   4.865725829
    11   3.130820000   0.466430000  -5.169060000   1.800000000  12.439258795
    12   3.520250000   0.828300000  -5.971880000   1.440000000   9.845727228
    13   3.301770000   1.146260000  -4.507270000   1.440000000   4.778707327

 TOTAL NUMBER OF TESSERAE=     272
 SURFACE AREA=   138.49388323(A**2)    CAVITY VOLUME=    119.37928891 (A**3)
 STEP CPU TIME =     0.00 TOTAL CPU TIME =          6.5 (      0.1 MIN)
 TOTAL WALL CLOCK TIME=          6.5 SECONDS, CPU UTILIZATION IS   100.00%

          THE SOLUTE IS ENCLOSED IN ONE CAVITY
 DONE CHECKING SEPARATION.
 STEP CPU TIME =     0.00 TOTAL CPU TIME =          6.5 (      0.1 MIN)
 TOTAL WALL CLOCK TIME=          6.5 SECONDS, CPU UTILIZATION IS   100.00%
 
 ..... DONE SETTING UP PCM CALCULATION .....
 STEP CPU TIME =     0.00 TOTAL CPU TIME =          6.5 (      0.1 MIN)
 TOTAL WALL CLOCK TIME=          6.5 SECONDS, CPU UTILIZATION IS   100.00%

          --------------------------
               R-AM1 SCF CALCULATION
          --------------------------
     DENSITY MATRIX CONV=  1.00E-05

 ITER EX DEM     TOTAL ENERGY        E CHANGE  DENSITY CHANGE    DIIS ERROR
   1  0  0      -62.0866174577   -62.0866174577   0.001055578   0.000000000
   2  1  0      -62.0866187041    -0.0000012464   0.000464093   0.000000000
   3  2  0      -62.0866189363    -0.0000002323   0.000210889   0.000000000
   4  3  0      -62.0866189863    -0.0000000499   0.000098315   0.000000000
   5  4  0      -62.0866189982    -0.0000000120   0.000046864   0.000000000
   6  5  0      -62.0866190015    -0.0000000032   0.000022826   0.000000000
   7  6  0      -62.0866190025    -0.0000000010   0.000011376   0.000000000
   8  7  0      -62.0866190029    -0.0000000004   0.000008300   0.000000000
   9  8  0      -62.0866190030    -0.0000000001   0.000006218   0.000000000

          -----------------
          DENSITY CONVERGED
          -----------------
     TIME TO FORM FOCK OPERATORS=       0.1 SECONDS (       0.0 SEC/ITER)
     TIME TO SOLVE SCF EQUATIONS=       0.0 SECONDS (       0.0 SEC/ITER)

 FINAL R-AM1 ENERGY IS      -62.0866190030 AFTER   9 ITERATIONS

 HEAT OF FORMATION IS      -182.98708 KCAL/MOL
 
  
   PCM ASC=      0.0394035645
   GCAVP  =      0.0000000000
   GDISP  =      0.0000000000
   GREP   =      0.0000000000
 ...... END OF RHF CALCULATION ......
 STEP CPU TIME =     0.11 TOTAL CPU TIME =          6.7 (      0.1 MIN)
 TOTAL WALL CLOCK TIME=          6.7 SECONDS, CPU UTILIZATION IS   100.00%
 
 .... DONE WITH PCM CONTRIBUTION TO GRADIENT ....
 STEP CPU TIME =     0.01 TOTAL CPU TIME =          6.7 (      0.1 MIN)
 TOTAL WALL CLOCK TIME=          6.7 SECONDS, CPU UTILIZATION IS   100.00%
 STEP CPU TIME =     0.00 TOTAL CPU TIME =          6.7 (      0.1 MIN)
 TOTAL WALL CLOCK TIME=          6.7 SECONDS, CPU UTILIZATION IS   100.00%

 UNITS ARE HARTREE/BOHR    E'X               E'Y               E'Z 
    1 CL              -0.000118949      -0.000055440       0.000016745
    2 C               -0.000168126       0.000332502      -0.000024010
    3 C               -0.000243410       0.000112421      -0.000138058
    4 O                0.000096452       0.000016656      -0.000161776
    5 H                0.000182453      -0.000053309       0.000119946
    6 H                0.000171156      -0.000422279       0.000152868
    7 H               -0.000010138       0.000025910       0.000010024
    8 O                0.000033591       0.000006061       0.000021500
    9 H                0.000019387       0.000020834       0.000014128
   10 H                0.000031515       0.000014155      -0.000007376
   11 O               -0.000134848      -0.000249150       0.000331984
   12 H                0.000126868       0.000182862      -0.000387824
   13 H                0.000014050       0.000068775       0.000051850
  $VIB   
          IVIB=   2 IATOM=   6 ICOORD=   2 E=      -62.0866190030
 -1.189487181E-04-5.543976673E-05 1.674487207E-05-1.681261052E-04 3.325023051E-04
 -2.401020845E-05-2.434100670E-04 1.124211472E-04-1.380580607E-04 9.645208916E-05
  1.665638304E-05-1.617763261E-04 1.824531640E-04-5.330871931E-05 1.199457745E-04
  1.711557919E-04-4.222786789E-04 1.528679371E-04-1.013815826E-05 2.591038885E-05
  1.002372723E-05 3.359123497E-05 6.060811171E-06 2.149955418E-05 1.938650812E-05
  2.083356296E-05 1.412808042E-05 3.151459885E-05 1.415508700E-05-7.375580419E-06
 -1.348480991E-04-2.491495485E-04 3.319835844E-04 1.268675990E-04 1.828617360E-04
 -3.878238161E-04 1.405016176E-05 6.877529218E-05 5.185046185E-05
 -3.562549494E-01 3.412193783E+00 7.168374345E-01
1   ATOM  6
                                        -------------------
   COORD  3                             NUCLEAR COORDINATES
                                        -------------------
     VIB  2

                       ATOM             X              Y              Z

                 1  CL               2.880774       0.521130       1.761640
                 2  C                5.308278      -0.128388      -0.392496
                 3  C                5.534573       1.894072      -2.363140
                 4  O                6.680673       1.514710      -4.359031
                 5  H                4.890403      -2.008004      -1.264775
                 6  H                7.113080      -0.249671       0.698326
                 7  H                4.647970       3.750256      -1.926160
                 8  O                8.522985      -2.939601      -7.958883
                 9  H                7.915684      -1.508058      -7.010373
                10  H                7.863622      -2.652344      -9.631102
                11  O                5.916392       0.881425      -9.768107
                12  H                6.652308       1.565260     -11.285217
                13  H                6.239441       2.166117      -8.517505

 MOPAC ONE- AND TWO-ELECTRON INTEGRALS REQUIRE      2933 WORDS.
 ...... END OF ONE- AND TWO-ELECTRON INTEGRALS......
 STEP CPU TIME =     0.00 TOTAL CPU TIME =          6.7 (      0.1 MIN)
 TOTAL WALL CLOCK TIME=          6.7 SECONDS, CPU UTILIZATION IS   100.00%
 ...... END OF ONE-ELECTRON INTEGRALS ......
 STEP CPU TIME =     0.00 TOTAL CPU TIME =          6.7 (      0.1 MIN)
 TOTAL WALL CLOCK TIME=          6.7 SECONDS, CPU UTILIZATION IS   100.00%

     ----------------------------
     INPUT FOR TESSERA DEFINITION
     ----------------------------
     NTSALL  =        60     MTHALL  =         4
     MTHAUT  =         0     AUTFRE  =    2.0000
     NTSFRZ  =        60     KEEPSM  =         0
     AREAKP  =   10.0000     BONDRY  =    1.0000
     AREATL  =    0.0100

     SPHERE     INITS       METHOD
          1        60       FIXPVA
          2        60       FIXPVA
          3        60       FIXPVA
          4        60       FIXPVA
          5        60       FIXPVA
          6        60       FIXPVA
          7        60       FIXPVA
          8        60       FIXPVA
          9        60       FIXPVA
         10        60       FIXPVA
         11        60       FIXPVA
         12        60       FIXPVA
         13        60       FIXPVA

     ------------------------------
      FIXPVA TESSELLATION FOR PCM
         PEIFENG SU AND HUI LI
     UNIVERSITY OF NEBRASKA-LINCOLN
     ------------------------------


     INPUT FOR CAVITY DEFINITION 
     ---------------------------
   ATOM               COORDINATES                RADIUS       EPS
      1      1.5244      0.2758      0.9322      1.8100     78.3900
      2      2.8090     -0.0679     -0.2077      1.7000     78.3900
      3      2.9288      1.0023     -1.2505      1.7000     78.3900
      4      3.5353      0.8015     -2.3067      1.5000     78.3900
      5      2.5879     -1.0626     -0.6693      1.2000     78.3900
      6      3.7641     -0.1321      0.3695      1.2000     78.3900
      7      2.4596      1.9845     -1.0193      1.2000     78.3900
      8      4.5102     -1.5556     -4.2117      1.5000     78.3900
      9      4.1888     -0.7980     -3.7097      1.2000     78.3900
     10      4.1612     -1.4036     -5.0966      1.2000     78.3900
     11      3.1308      0.4664     -5.1691      1.5000     78.3900
     12      3.5202      0.8283     -5.9719      1.2000     78.3900
     13      3.3018      1.1463     -4.5073      1.2000     78.3900

 MEMORY USED TO GENERATE CAVITY=    262582


 TOTAL NUMBER OF SPHERES=    13
 SPHERE           CENTER  (X,Y,Z) (A)               RADIUS (A)      AREA(A*A)
     1   1.524440000   0.275770000   0.932220000   2.172000000  38.490629521
     2   2.809020000  -0.067940000  -0.207700000   2.040000000   3.656982999
     3   2.928770000   1.002300000  -1.250520000   2.040000000  12.181771764
     4   3.535260000   0.801550000  -2.306700000   1.800000000   8.976427058
     5   2.587890000  -1.062590000  -0.669290000   1.440000000   7.103966523
     6   3.764080000  -0.132120000   0.369538228   1.440000000   8.252859309
     7   2.459600000   1.984550000  -1.019280000   1.440000000   7.030749145
     8   4.510170000  -1.555570000  -4.211660000   1.800000000  20.269614417
     9   4.188800000  -0.798030000  -3.709730000   1.440000000   0.594081452
    10   4.161250000  -1.403560000  -5.096560000   1.440000000   4.865725829
    11   3.130820000   0.466430000  -5.169060000   1.800000000  12.439258795
    12   3.520250000   0.828300000  -5.971880000   1.440000000   9.845727228
    13   3.301770000   1.146260000  -4.507270000   1.440000000   4.778707327

 TOTAL NUMBER OF TESSERAE=     272
 SURFACE AREA=   138.48650137(A**2)    CAVITY VOLUME=    119.36551714 (A**3)
 STEP CPU TIME =     0.00 TOTAL CPU TIME =          6.7 (      0.1 MIN)
 TOTAL WALL CLOCK TIME=          6.7 SECONDS, CPU UTILIZATION IS   100.00%

          THE SOLUTE IS ENCLOSED IN ONE CAVITY
 DONE CHECKING SEPARATION.
 STEP CPU TIME =     0.00 TOTAL CPU TIME =          6.7 (      0.1 MIN)
 TOTAL WALL CLOCK TIME=          6.7 SECONDS, CPU UTILIZATION IS   100.00%
 
 ..... DONE SETTING UP PCM CALCULATION .....
 STEP CPU TIME =     0.00 TOTAL CPU TIME =          6.7 (      0.1 MIN)
 TOTAL WALL CLOCK TIME=          6.7 SECONDS, CPU UTILIZATION IS   100.00%

          --------------------------
               R-AM1 SCF CALCULATION
          --------------------------
     DENSITY MATRIX CONV=  1.00E-05

 ITER EX DEM     TOTAL ENERGY        E CHANGE  DENSITY CHANGE    DIIS ERROR
   1  0  0      -62.0866136159   -62.0866136159   0.000843288   0.000000000
   2  1  0      -62.0866149610    -0.0000013451   0.000341594   0.000000000
   3  2  0      -62.0866151522    -0.0000001912   0.000146436   0.000000000
   4  3  0      -62.0866151892    -0.0000000370   0.000065682   0.000000000
   5  4  0      -62.0866151980    -0.0000000088   0.000032464   0.000000000
   6  5  0      -62.0866152004    -0.0000000025   0.000019603   0.000000000
   7  6  0      -62.0866152013    -0.0000000008   0.000011830   0.000000000
   8  7  0      -62.0866152016    -0.0000000003   0.000007142   0.000000000

          -----------------
          DENSITY CONVERGED
          -----------------
     TIME TO FORM FOCK OPERATORS=       0.1 SECONDS (       0.0 SEC/ITER)
     TIME TO SOLVE SCF EQUATIONS=       0.0 SECONDS (       0.0 SEC/ITER)

 FINAL R-AM1 ENERGY IS      -62.0866152016 AFTER   8 ITERATIONS

 HEAT OF FORMATION IS      -182.98469 KCAL/MOL
 
  
   PCM ASC=      0.0394112779
   GCAVP  =      0.0000000000
   GDISP  =      0.0000000000
   GREP   =      0.0000000000
 ...... END OF RHF CALCULATION ......
 STEP CPU TIME =     0.08 TOTAL CPU TIME =          6.7 (      0.1 MIN)
 TOTAL WALL CLOCK TIME=          6.7 SECONDS, CPU UTILIZATION IS   100.00%
 
 .... DONE WITH PCM CONTRIBUTION TO GRADIENT ....
 STEP CPU TIME =     0.01 TOTAL CPU TIME =          6.8 (      0.1 MIN)
 TOTAL WALL CLOCK TIME=          6.8 SECONDS, CPU UTILIZATION IS   100.00%
 STEP CPU TIME =     0.00 TOTAL CPU TIME =          6.8 (      0.1 MIN)
 TOTAL WALL CLOCK TIME=          6.8 SECONDS, CPU UTILIZATION IS   100.00%

 UNITS ARE HARTREE/BOHR    E'X               E'Y               E'Z 
    1 CL              -0.000228666       0.000002306      -0.000001851
    2 C                0.001118520      -0.000107736       0.001079694
    3 C                0.000103541      -0.000044638       0.000231895
    4 O                0.000074953       0.000003260      -0.000148618
    5 H                0.000128368      -0.000010202       0.000034692
    6 H               -0.001250137       0.000107731      -0.001225565
    7 H               -0.000037046       0.000005799       0.000005458
    8 O                0.000033566       0.000006102       0.000021422
    9 H                0.000019375       0.000020773       0.000014063
   10 H                0.000031508       0.000014163      -0.000007386
   11 O               -0.000134816      -0.000249219       0.000331851
   12 H                0.000126849       0.000182840      -0.000387814
   13 H                0.000013984       0.000068820       0.000052157
  $VIB   
          IVIB=   2 IATOM=   6 ICOORD=   3 E=      -62.0866152016
 -2.286659866E-04 2.306377022E-06-1.850619165E-06 1.118519801E-03-1.077364423E-04
  1.079694055E-03 1.035412177E-04-4.463773846E-05 2.318949147E-04 7.495289810E-05
  3.260280534E-06-1.486175503E-04 1.283677039E-04-1.020240282E-05 3.469249609E-05
 -1.250137255E-03 1.077314330E-04-1.225565197E-03-3.704575140E-05 5.799265784E-06
  5.458010751E-06 3.356646341E-05 6.102218327E-06 2.142230190E-05 1.937490035E-05
  2.077336259E-05 1.406304960E-05 3.150838050E-05 1.416325935E-05-7.385749820E-06
 -1.348162962E-04-2.492193547E-04 3.318511190E-04 1.268494574E-04 1.828395798E-04
 -3.878136698E-04 1.398446691E-05 6.882016179E-05 5.215683844E-05
 -3.537230568E-01 3.418459565E+00 7.127486988E-01
1   ATOM  7
                                        -------------------
   COORD  1                             NUCLEAR COORDINATES
                                        -------------------
     VIB  2

                       ATOM             X              Y              Z

                 1  CL               2.880774       0.521130       1.761640
                 2  C                5.308278      -0.128388      -0.392496
                 3  C                5.534573       1.894072      -2.363140
                 4  O                6.680673       1.514710      -4.359031
                 5  H                4.890403      -2.008004      -1.264775
                 6  H                7.113080      -0.249671       0.708326
                 7  H                4.637970       3.750256      -1.926160
                 8  O                8.522985      -2.939601      -7.958883
                 9  H                7.915684      -1.508058      -7.010373
                10  H                7.863622      -2.652344      -9.631102
                11  O                5.916392       0.881425      -9.768107
                12  H                6.652308       1.565260     -11.285217
                13  H                6.239441       2.166117      -8.517505

 MOPAC ONE- AND TWO-ELECTRON INTEGRALS REQUIRE      2933 WORDS.
 ...... END OF ONE- AND TWO-ELECTRON INTEGRALS......
 STEP CPU TIME =     0.00 TOTAL CPU TIME =          6.8 (      0.1 MIN)
 TOTAL WALL CLOCK TIME=          6.8 SECONDS, CPU UTILIZATION IS   100.00%
 ...... END OF ONE-ELECTRON INTEGRALS ......
 STEP CPU TIME =     0.00 TOTAL CPU TIME =          6.8 (      0.1 MIN)
 TOTAL WALL CLOCK TIME=          6.8 SECONDS, CPU UTILIZATION IS   100.00%

     ----------------------------
     INPUT FOR TESSERA DEFINITION
     ----------------------------
     NTSALL  =        60     MTHALL  =         4
     MTHAUT  =         0     AUTFRE  =    2.0000
     NTSFRZ  =        60     KEEPSM  =         0
     AREAKP  =   10.0000     BONDRY  =    1.0000
     AREATL  =    0.0100

     SPHERE     INITS       METHOD
          1        60       FIXPVA
          2        60       FIXPVA
          3        60       FIXPVA
          4        60       FIXPVA
          5        60       FIXPVA
          6        60       FIXPVA
          7        60       FIXPVA
          8        60       FIXPVA
          9        60       FIXPVA
         10        60       FIXPVA
         11        60       FIXPVA
         12        60       FIXPVA
         13        60       FIXPVA

     ------------------------------
      FIXPVA TESSELLATION FOR PCM
         PEIFENG SU AND HUI LI
     UNIVERSITY OF NEBRASKA-LINCOLN
     ------------------------------


     INPUT FOR CAVITY DEFINITION 
     ---------------------------
   ATOM               COORDINATES                RADIUS       EPS
      1      1.5244      0.2758      0.9322      1.8100     78.3900
      2      2.8090     -0.0679     -0.2077      1.7000     78.3900
      3      2.9288      1.0023     -1.2505      1.7000     78.3900
      4      3.5353      0.8015     -2.3067      1.5000     78.3900
      5      2.5879     -1.0626     -0.6693      1.2000     78.3900
      6      3.7641     -0.1321      0.3748      1.2000     78.3900
      7      2.4543      1.9845     -1.0193      1.2000     78.3900
      8      4.5102     -1.5556     -4.2117      1.5000     78.3900
      9      4.1888     -0.7980     -3.7097      1.2000     78.3900
     10      4.1612     -1.4036     -5.0966      1.2000     78.3900
     11      3.1308      0.4664     -5.1691      1.5000     78.3900
     12      3.5202      0.8283     -5.9719      1.2000     78.3900
     13      3.3018      1.1463     -4.5073      1.2000     78.3900

 MEMORY USED TO GENERATE CAVITY=    262582


 TOTAL NUMBER OF SPHERES=    13
 SPHERE           CENTER  (X,Y,Z) (A)               RADIUS (A)      AREA(A*A)
     1   1.524440000   0.275770000   0.932220000   2.172000000  38.490629521
     2   2.809020000  -0.067940000  -0.207700000   2.040000000   3.657223925
     3   2.928770000   1.002300000  -1.250520000   2.040000000  12.189716586
     4   3.535260000   0.801550000  -2.306700000   1.800000000   8.978195913
     5   2.587890000  -1.062590000  -0.669290000   1.440000000   7.103966586
     6   3.764080000  -0.132120000   0.374830000   1.440000000   8.266216870
     7   2.454308228   1.984550000  -1.019280000   1.440000000   7.024551249
     8   4.510170000  -1.555570000  -4.211660000   1.800000000  20.269614417
     9   4.188800000  -0.798030000  -3.709730000   1.440000000   0.594081452
    10   4.161250000  -1.403560000  -5.096560000   1.440000000   4.865725829
    11   3.130820000   0.466430000  -5.169060000   1.800000000  12.439258795
    12   3.520250000   0.828300000  -5.971880000   1.440000000   9.845727228
    13   3.301770000   1.146260000  -4.507270000   1.440000000   4.778708060

 TOTAL NUMBER OF TESSERAE=     272
 SURFACE AREA=   138.50361643(A**2)    CAVITY VOLUME=    119.38840029 (A**3)
 STEP CPU TIME =     0.00 TOTAL CPU TIME =          6.8 (      0.1 MIN)
 TOTAL WALL CLOCK TIME=          6.8 SECONDS, CPU UTILIZATION IS   100.00%

          THE SOLUTE IS ENCLOSED IN ONE CAVITY
 DONE CHECKING SEPARATION.
 STEP CPU TIME =     0.00 TOTAL CPU TIME =          6.8 (      0.1 MIN)
 TOTAL WALL CLOCK TIME=          6.8 SECONDS, CPU UTILIZATION IS   100.00%
 
 ..... DONE SETTING UP PCM CALCULATION .....
 STEP CPU TIME =     0.00 TOTAL CPU TIME =          6.8 (      0.1 MIN)
 TOTAL WALL CLOCK TIME=          6.8 SECONDS, CPU UTILIZATION IS   100.00%

          --------------------------
               R-AM1 SCF CALCULATION
          --------------------------
     DENSITY MATRIX CONV=  1.00E-05

 ITER EX DEM     TOTAL ENERGY        E CHANGE  DENSITY CHANGE    DIIS ERROR
   1  0  0      -62.0866148664   -62.0866148664   0.000905724   0.000000000
   2  1  0      -62.0866161776    -0.0000013112   0.000422419   0.000000000
   3  2  0      -62.0866164539    -0.0000002763   0.000220775   0.000000000
   4  3  0      -62.0866165462    -0.0000000923   0.000126393   0.000000000
   5  4  0      -62.0866165858    -0.0000000396   0.000099608   0.000000000
   6  5  0      -62.0866166049    -0.0000000191   0.000075987   0.000000000
   7  6  0      -62.0866166145    -0.0000000096   0.000056754   0.000000000
   8  7  0      -62.0866166195    -0.0000000050   0.000041902   0.000000000
   9  8  0      -62.0866166221    -0.0000000026   0.000030734   0.000000000
  10  9  0      -62.0866166235    -0.0000000014   0.000022457   0.000000000
  11 10  0      -62.0866166243    -0.0000000007   0.000016373   0.000000000
  12 11  0      -62.0866166246    -0.0000000004   0.000011921   0.000000000

          ----------------
          ENERGY CONVERGED
          ----------------
     TIME TO FORM FOCK OPERATORS=       0.1 SECONDS (       0.0 SEC/ITER)
     TIME TO SOLVE SCF EQUATIONS=       0.0 SECONDS (       0.0 SEC/ITER)

 FINAL R-AM1 ENERGY IS      -62.0866166246 AFTER  12 ITERATIONS

 HEAT OF FORMATION IS      -182.98559 KCAL/MOL
 
  
   PCM ASC=      0.0394078821
   GCAVP  =      0.0000000000
   GDISP  =      0.0000000000
   GREP   =      0.0000000000
 ...... END OF RHF CALCULATION ......
 STEP CPU TIME =     0.12 TOTAL CPU TIME =          6.9 (      0.1 MIN)
 TOTAL WALL CLOCK TIME=          6.9 SECONDS, CPU UTILIZATION IS   100.00%
 
 .... DONE WITH PCM CONTRIBUTION TO GRADIENT ....
 STEP CPU TIME =     0.00 TOTAL CPU TIME =          6.9 (      0.1 MIN)
 TOTAL WALL CLOCK TIME=          6.9 SECONDS, CPU UTILIZATION IS   100.00%
 STEP CPU TIME =     0.00 TOTAL CPU TIME =          6.9 (      0.1 MIN)
 TOTAL WALL CLOCK TIME=          6.9 SECONDS, CPU UTILIZATION IS   100.00%

 UNITS ARE HARTREE/BOHR    E'X               E'Y               E'Z 
    1 CL              -0.000040190      -0.000026064       0.000010169
    2 C               -0.000188764      -0.000089006       0.000000517
    3 C                0.000865450      -0.000748763      -0.000031310
    4 O                0.000124753      -0.000271411      -0.000424558
    5 H               -0.000009965      -0.000076805      -0.000020348
    6 H                0.000039322       0.000010256       0.000025104
    7 H               -0.000880457       0.001157531       0.000415543
    8 O                0.000033761       0.000005631       0.000020802
    9 H                0.000018430       0.000022153       0.000015708
   10 H                0.000031607       0.000014099      -0.000007116
   11 O               -0.000135068      -0.000248912       0.000331663
   12 H                0.000126906       0.000182897      -0.000387762
   13 H                0.000014215       0.000068396       0.000051588
  $VIB   
          IVIB=   2 IATOM=   7 ICOORD=   1 E=      -62.0866166246
 -4.019038748E-05-2.606441930E-05 1.016917357E-05-1.887637764E-04-8.900639677E-05
  5.170268328E-07 8.654495859E-04-7.487629344E-04-3.130976881E-05 1.247531004E-04
 -2.714112087E-04-4.245583063E-04-9.964942902E-06-7.680501684E-05-2.034818974E-05
  3.932248066E-05 1.025629006E-05 2.510362569E-05-8.804574961E-04 1.157530711E-03
  4.155433319E-04 3.376147534E-05 5.630752603E-06 2.080155934E-05 1.842960870E-05
  2.215255338E-05 1.570808926E-05 3.160694283E-05 1.409905472E-05-7.116021451E-06
 -1.350681820E-04-2.489120294E-04 3.316632422E-04 1.269061069E-04 1.828968923E-04
 -3.877617775E-04 1.421548412E-05 6.839575129E-05 5.158801509E-05
 -3.585544964E-01 3.417160194E+00 7.168602328E-01
1   ATOM  7
                                        -------------------
   COORD  2                             NUCLEAR COORDINATES
                                        -------------------
     VIB  2

                       ATOM             X              Y              Z

                 1  CL               2.880774       0.521130       1.761640
                 2  C                5.308278      -0.128388      -0.392496
                 3  C                5.534573       1.894072      -2.363140
                 4  O                6.680673       1.514710      -4.359031
                 5  H                4.890403      -2.008004      -1.264775
                 6  H                7.113080      -0.249671       0.708326
                 7  H                4.647970       3.740256      -1.926160
                 8  O                8.522985      -2.939601      -7.958883
                 9  H                7.915684      -1.508058      -7.010373
                10  H                7.863622      -2.652344      -9.631102
                11  O                5.916392       0.881425      -9.768107
                12  H                6.652308       1.565260     -11.285217
                13  H                6.239441       2.166117      -8.517505

 MOPAC ONE- AND TWO-ELECTRON INTEGRALS REQUIRE      2933 WORDS.
 ...... END OF ONE- AND TWO-ELECTRON INTEGRALS......
 STEP CPU TIME =     0.00 TOTAL CPU TIME =          6.9 (      0.1 MIN)
 TOTAL WALL CLOCK TIME=          6.9 SECONDS, CPU UTILIZATION IS   100.00%
 ...... END OF ONE-ELECTRON INTEGRALS ......
 STEP CPU TIME =     0.00 TOTAL CPU TIME =          6.9 (      0.1 MIN)
 TOTAL WALL CLOCK TIME=          6.9 SECONDS, CPU UTILIZATION IS   100.00%

     ----------------------------
     INPUT FOR TESSERA DEFINITION
     ----------------------------
     NTSALL  =        60     MTHALL  =         4
     MTHAUT  =         0     AUTFRE  =    2.0000
     NTSFRZ  =        60     KEEPSM  =         0
     AREAKP  =   10.0000     BONDRY  =    1.0000
     AREATL  =    0.0100

     SPHERE     INITS       METHOD
          1        60       FIXPVA
          2        60       FIXPVA
          3        60       FIXPVA
          4        60       FIXPVA
          5        60       FIXPVA
          6        60       FIXPVA
          7        60       FIXPVA
          8        60       FIXPVA
          9        60       FIXPVA
         10        60       FIXPVA
         11        60       FIXPVA
         12        60       FIXPVA
         13        60       FIXPVA

     ------------------------------
      FIXPVA TESSELLATION FOR PCM
         PEIFENG SU AND HUI LI
     UNIVERSITY OF NEBRASKA-LINCOLN
     ------------------------------


     INPUT FOR CAVITY DEFINITION 
     ---------------------------
   ATOM               COORDINATES                RADIUS       EPS
      1      1.5244      0.2758      0.9322      1.8100     78.3900
      2      2.8090     -0.0679     -0.2077      1.7000     78.3900
      3      2.9288      1.0023     -1.2505      1.7000     78.3900
      4      3.5353      0.8015     -2.3067      1.5000     78.3900
      5      2.5879     -1.0626     -0.6693      1.2000     78.3900
      6      3.7641     -0.1321      0.3748      1.2000     78.3900
      7      2.4596      1.9793     -1.0193      1.2000     78.3900
      8      4.5102     -1.5556     -4.2117      1.5000     78.3900
      9      4.1888     -0.7980     -3.7097      1.2000     78.3900
     10      4.1612     -1.4036     -5.0966      1.2000     78.3900
     11      3.1308      0.4664     -5.1691      1.5000     78.3900
     12      3.5202      0.8283     -5.9719      1.2000     78.3900
     13      3.3018      1.1463     -4.5073      1.2000     78.3900

 MEMORY USED TO GENERATE CAVITY=    262582


 TOTAL NUMBER OF SPHERES=    13
 SPHERE           CENTER  (X,Y,Z) (A)               RADIUS (A)      AREA(A*A)
     1   1.524440000   0.275770000   0.932220000   2.172000000  38.490629521
     2   2.809020000  -0.067940000  -0.207700000   2.040000000   3.657223925
     3   2.928770000   1.002300000  -1.250520000   2.040000000  12.190597872
     4   3.535260000   0.801550000  -2.306700000   1.800000000   8.978195913
     5   2.587890000  -1.062590000  -0.669290000   1.440000000   7.103966586
     6   3.764080000  -0.132120000   0.374830000   1.440000000   8.266216870
     7   2.459600000   1.979258228  -1.019280000   1.440000000   6.983372512
     8   4.510170000  -1.555570000  -4.211660000   1.800000000  20.269614417
     9   4.188800000  -0.798030000  -3.709730000   1.440000000   0.594081452
    10   4.161250000  -1.403560000  -5.096560000   1.440000000   4.865725829
    11   3.130820000   0.466430000  -5.169060000   1.800000000  12.439258795
    12   3.520250000   0.828300000  -5.971880000   1.440000000   9.845727228
    13   3.301770000   1.146260000  -4.507270000   1.440000000   4.778712191

 TOTAL NUMBER OF TESSERAE=     272
 SURFACE AREA=   138.46332311(A**2)    CAVITY VOLUME=    119.34085659 (A**3)
 STEP CPU TIME =     0.00 TOTAL CPU TIME =          6.9 (      0.1 MIN)
 TOTAL WALL CLOCK TIME=          6.9 SECONDS, CPU UTILIZATION IS   100.00%

          THE SOLUTE IS ENCLOSED IN ONE CAVITY
 DONE CHECKING SEPARATION.
 STEP CPU TIME =     0.00 TOTAL CPU TIME =          6.9 (      0.1 MIN)
 TOTAL WALL CLOCK TIME=          6.9 SECONDS, CPU UTILIZATION IS   100.00%
 
 ..... DONE SETTING UP PCM CALCULATION .....
 STEP CPU TIME =     0.00 TOTAL CPU TIME =          6.9 (      0.1 MIN)
 TOTAL WALL CLOCK TIME=          6.9 SECONDS, CPU UTILIZATION IS   100.00%

          --------------------------
               R-AM1 SCF CALCULATION
          --------------------------
     DENSITY MATRIX CONV=  1.00E-05

 ITER EX DEM     TOTAL ENERGY        E CHANGE  DENSITY CHANGE    DIIS ERROR
   1  0  0      -62.0866057578   -62.0866057578   0.000771747   0.000000000
   2  1  0      -62.0866073298    -0.0000015720   0.000201470   0.000000000
   3  2  0      -62.0866074813    -0.0000001516   0.000095337   0.000000000
   4  3  0      -62.0866075063    -0.0000000250   0.000052410   0.000000000
   5  4  0      -62.0866075132    -0.0000000069   0.000037111   0.000000000
   6  5  0      -62.0866075158    -0.0000000026   0.000027623   0.000000000
   7  6  0      -62.0866075171    -0.0000000013   0.000020359   0.000000000
   8  7  0      -62.0866075177    -0.0000000006   0.000014915   0.000000000
   9  8  0      -62.0866075180    -0.0000000004   0.000010889   0.000000000

          ----------------
          ENERGY CONVERGED
          ----------------
     TIME TO FORM FOCK OPERATORS=       0.1 SECONDS (       0.0 SEC/ITER)
     TIME TO SOLVE SCF EQUATIONS=       0.0 SECONDS (       0.0 SEC/ITER)

 FINAL R-AM1 ENERGY IS      -62.0866075180 AFTER   9 ITERATIONS

 HEAT OF FORMATION IS      -182.97987 KCAL/MOL
 
  
   PCM ASC=      0.0394259029
   GCAVP  =      0.0000000000
   GDISP  =      0.0000000000
   GREP   =      0.0000000000
 ...... END OF RHF CALCULATION ......
 STEP CPU TIME =     0.10 TOTAL CPU TIME =          7.0 (      0.1 MIN)
 TOTAL WALL CLOCK TIME=          7.0 SECONDS, CPU UTILIZATION IS   100.00%
 
 .... DONE WITH PCM CONTRIBUTION TO GRADIENT ....
 STEP CPU TIME =     0.00 TOTAL CPU TIME =          7.0 (      0.1 MIN)
 TOTAL WALL CLOCK TIME=          7.0 SECONDS, CPU UTILIZATION IS   100.00%
 STEP CPU TIME =     0.00 TOTAL CPU TIME =          7.0 (      0.1 MIN)
 TOTAL WALL CLOCK TIME=          7.0 SECONDS, CPU UTILIZATION IS   100.00%

 UNITS ARE HARTREE/BOHR    E'X               E'Y               E'Z 
    1 CL              -0.000031115      -0.000015941      -0.000005737
    2 C               -0.000162754       0.000218897      -0.000023486
    3 C               -0.000965920       0.002471122       0.000562423
    4 O               -0.000089675       0.000088472      -0.000007640
    5 H               -0.000014434      -0.000065828      -0.000038255
    6 H                0.000036037       0.000006264       0.000029217
    7 H                0.001137911      -0.002746811      -0.000542242
    8 O                0.000033682       0.000005671       0.000020914
    9 H                0.000018589       0.000022160       0.000015236
   10 H                0.000031571       0.000014223      -0.000007114
   11 O               -0.000135140      -0.000249058       0.000330737
   12 H                0.000126888       0.000182818      -0.000387563
   13 H                0.000014360       0.000068010       0.000053511
  $VIB   
          IVIB=   2 IATOM=   7 ICOORD=   2 E=      -62.0866075180
 -3.111481091E-05-1.594080905E-05-5.737357887E-06-1.627543042E-04 2.188968818E-04
 -2.348613451E-05-9.659198491E-04 2.471122448E-03 5.624226271E-04-8.967476654E-05
  8.847215179E-05-7.639682148E-06-1.443422972E-05-6.582804671E-05-3.825516569E-05
  3.603690682E-05 6.264286070E-06 2.921698673E-05 1.137910807E-03-2.746810562E-03
 -5.422416584E-04 3.368164220E-05 5.671203089E-06 2.091405713E-05 1.858870365E-05
  2.215996536E-05 1.523577489E-05 3.157097328E-05 1.422251177E-05-7.113503308E-06
 -1.351398532E-04-2.490576497E-04 3.307366645E-04 1.268883147E-04 1.828180298E-04
 -3.875633646E-04 1.436046560E-05 6.800958916E-05 5.351075616E-05
 -3.572138423E-01 3.416761597E+00 7.180454944E-01
1   ATOM  7
                                        -------------------
   COORD  3                             NUCLEAR COORDINATES
                                        -------------------
     VIB  2

                       ATOM             X              Y              Z

                 1  CL               2.880774       0.521130       1.761640
                 2  C                5.308278      -0.128388      -0.392496
                 3  C                5.534573       1.894072      -2.363140
                 4  O                6.680673       1.514710      -4.359031
                 5  H                4.890403      -2.008004      -1.264775
                 6  H                7.113080      -0.249671       0.708326
                 7  H                4.647970       3.750256      -1.936160
                 8  O                8.522985      -2.939601      -7.958883
                 9  H                7.915684      -1.508058      -7.010373
                10  H                7.863622      -2.652344      -9.631102
                11  O                5.916392       0.881425      -9.768107
                12  H                6.652308       1.565260     -11.285217
                13  H                6.239441       2.166117      -8.517505

 MOPAC ONE- AND TWO-ELECTRON INTEGRALS REQUIRE      2933 WORDS.
 ...... END OF ONE- AND TWO-ELECTRON INTEGRALS......
 STEP CPU TIME =     0.00 TOTAL CPU TIME =          7.0 (      0.1 MIN)
 TOTAL WALL CLOCK TIME=          7.0 SECONDS, CPU UTILIZATION IS   100.00%
 ...... END OF ONE-ELECTRON INTEGRALS ......
 STEP CPU TIME =     0.00 TOTAL CPU TIME =          7.0 (      0.1 MIN)
 TOTAL WALL CLOCK TIME=          7.0 SECONDS, CPU UTILIZATION IS   100.00%

     ----------------------------
     INPUT FOR TESSERA DEFINITION
     ----------------------------
     NTSALL  =        60     MTHALL  =         4
     MTHAUT  =         0     AUTFRE  =    2.0000
     NTSFRZ  =        60     KEEPSM  =         0
     AREAKP  =   10.0000     BONDRY  =    1.0000
     AREATL  =    0.0100

     SPHERE     INITS       METHOD
          1        60       FIXPVA
          2        60       FIXPVA
          3        60       FIXPVA
          4        60       FIXPVA
          5        60       FIXPVA
          6        60       FIXPVA
          7        60       FIXPVA
          8        60       FIXPVA
          9        60       FIXPVA
         10        60       FIXPVA
         11        60       FIXPVA
         12        60       FIXPVA
         13        60       FIXPVA

     ------------------------------
      FIXPVA TESSELLATION FOR PCM
         PEIFENG SU AND HUI LI
     UNIVERSITY OF NEBRASKA-LINCOLN
     ------------------------------


     INPUT FOR CAVITY DEFINITION 
     ---------------------------
   ATOM               COORDINATES                RADIUS       EPS
      1      1.5244      0.2758      0.9322      1.8100     78.3900
      2      2.8090     -0.0679     -0.2077      1.7000     78.3900
      3      2.9288      1.0023     -1.2505      1.7000     78.3900
      4      3.5353      0.8015     -2.3067      1.5000     78.3900
      5      2.5879     -1.0626     -0.6693      1.2000     78.3900
      6      3.7641     -0.1321      0.3748      1.2000     78.3900
      7      2.4596      1.9845     -1.0246      1.2000     78.3900
      8      4.5102     -1.5556     -4.2117      1.5000     78.3900
      9      4.1888     -0.7980     -3.7097      1.2000     78.3900
     10      4.1612     -1.4036     -5.0966      1.2000     78.3900
     11      3.1308      0.4664     -5.1691      1.5000     78.3900
     12      3.5202      0.8283     -5.9719      1.2000     78.3900
     13      3.3018      1.1463     -4.5073      1.2000     78.3900

 MEMORY USED TO GENERATE CAVITY=    262582


 TOTAL NUMBER OF SPHERES=    13
 SPHERE           CENTER  (X,Y,Z) (A)               RADIUS (A)      AREA(A*A)
     1   1.524440000   0.275770000   0.932220000   2.172000000  38.490629521
     2   2.809020000  -0.067940000  -0.207700000   2.040000000   3.657223925
     3   2.928770000   1.002300000  -1.250520000   2.040000000  12.193130293
     4   3.535260000   0.801550000  -2.306700000   1.800000000   8.978195913
     5   2.587890000  -1.062590000  -0.669290000   1.440000000   7.103966586
     6   3.764080000  -0.132120000   0.374830000   1.440000000   8.266216870
     7   2.459600000   1.984550000  -1.024571772   1.440000000   7.015895490
     8   4.510170000  -1.555570000  -4.211660000   1.800000000  20.269614417
     9   4.188800000  -0.798030000  -3.709730000   1.440000000   0.594081452
    10   4.161250000  -1.403560000  -5.096560000   1.440000000   4.865725829
    11   3.130820000   0.466430000  -5.169060000   1.800000000  12.439258795
    12   3.520250000   0.828300000  -5.971880000   1.440000000   9.845727228
    13   3.301770000   1.146260000  -4.507270000   1.440000000   4.778661283

 TOTAL NUMBER OF TESSERAE=     272
 SURFACE AREA=   138.49832760(A**2)    CAVITY VOLUME=    119.38510080 (A**3)
 STEP CPU TIME =     0.00 TOTAL CPU TIME =          7.0 (      0.1 MIN)
 TOTAL WALL CLOCK TIME=          7.0 SECONDS, CPU UTILIZATION IS   100.00%

          THE SOLUTE IS ENCLOSED IN ONE CAVITY
 DONE CHECKING SEPARATION.
 STEP CPU TIME =     0.00 TOTAL CPU TIME =          7.0 (      0.1 MIN)
 TOTAL WALL CLOCK TIME=          7.0 SECONDS, CPU UTILIZATION IS   100.00%
 
 ..... DONE SETTING UP PCM CALCULATION .....
 STEP CPU TIME =     0.00 TOTAL CPU TIME =          7.0 (      0.1 MIN)
 TOTAL WALL CLOCK TIME=          7.0 SECONDS, CPU UTILIZATION IS   100.00%

          --------------------------
               R-AM1 SCF CALCULATION
          --------------------------
     DENSITY MATRIX CONV=  1.00E-05

 ITER EX DEM     TOTAL ENERGY        E CHANGE  DENSITY CHANGE    DIIS ERROR
   1  0  0      -62.0866162301   -62.0866162301   0.000876190   0.000000000
   2  1  0      -62.0866173556    -0.0000011255   0.000346820   0.000000000
   3  2  0      -62.0866175348    -0.0000001792   0.000154022   0.000000000
   4  3  0      -62.0866175794    -0.0000000447   0.000076596   0.000000000
   5  4  0      -62.0866175946    -0.0000000152   0.000052344   0.000000000
   6  5  0      -62.0866176009    -0.0000000062   0.000036047   0.000000000
   7  6  0      -62.0866176037    -0.0000000029   0.000027130   0.000000000
   8  7  0      -62.0866176051    -0.0000000014   0.000020266   0.000000000
   9  8  0      -62.0866176058    -0.0000000007   0.000015022   0.000000000
  10  9  0      -62.0866176062    -0.0000000004   0.000011072   0.000000000

          ----------------
          ENERGY CONVERGED
          ----------------
     TIME TO FORM FOCK OPERATORS=       0.1 SECONDS (       0.0 SEC/ITER)
     TIME TO SOLVE SCF EQUATIONS=       0.0 SECONDS (       0.0 SEC/ITER)

 FINAL R-AM1 ENERGY IS      -62.0866176062 AFTER  10 ITERATIONS

 HEAT OF FORMATION IS      -182.98620 KCAL/MOL
 
  
   PCM ASC=      0.0394058141
   GCAVP  =      0.0000000000
   GDISP  =      0.0000000000
   GREP   =      0.0000000000
 ...... END OF RHF CALCULATION ......
 STEP CPU TIME =     0.12 TOTAL CPU TIME =          7.1 (      0.1 MIN)
 TOTAL WALL CLOCK TIME=          7.1 SECONDS, CPU UTILIZATION IS   100.00%
 
 .... DONE WITH PCM CONTRIBUTION TO GRADIENT ....
 STEP CPU TIME =     0.02 TOTAL CPU TIME =          7.1 (      0.1 MIN)
 TOTAL WALL CLOCK TIME=          7.1 SECONDS, CPU UTILIZATION IS   100.00%
 STEP CPU TIME =     0.00 TOTAL CPU TIME =          7.1 (      0.1 MIN)
 TOTAL WALL CLOCK TIME=          7.1 SECONDS, CPU UTILIZATION IS   100.00%

 UNITS ARE HARTREE/BOHR    E'X               E'Y               E'Z 
    1 CL              -0.000042503      -0.000038555       0.000017404
    2 C               -0.000051844      -0.000252127       0.000025729
    3 C               -0.000137652       0.000504798       0.000531638
    4 O               -0.000263512       0.000354808       0.000089647
    5 H               -0.000011743      -0.000083155      -0.000009000
    6 H                0.000031952      -0.000002920       0.000035280
    7 H                0.000384251      -0.000525433      -0.000713545
    8 O                0.000033480       0.000006602       0.000022372
    9 H                0.000019981       0.000019018       0.000012572
   10 H                0.000031432       0.000014134      -0.000007689
   11 O               -0.000134588      -0.000249188       0.000332946
   12 H                0.000126847       0.000182868      -0.000388080
   13 H                0.000013899       0.000069151       0.000050726
  $VIB   
          IVIB=   2 IATOM=   7 ICOORD=   3 E=      -62.0866176062
 -4.250326394E-05-3.855502443E-05 1.740383255E-05-5.184430331E-05-2.521271836E-04
  2.572856802E-05-1.376516062E-04 5.047981979E-04 5.316377695E-04-2.635116710E-04
  3.548080328E-04 8.964658185E-05-1.174329478E-05-8.315548225E-05-8.999699706E-06
  3.195186954E-05-2.919883990E-06 3.527991262E-05 3.842513648E-04-5.254332141E-04
 -7.135454287E-04 3.348031126E-05 6.601919799E-06 2.237230041E-05 1.998098136E-05
  1.901773188E-05 1.257220007E-05 3.143153026E-05 1.413385281E-05-7.688811404E-06
 -1.345875075E-04-2.491877434E-04 3.329463352E-04 1.268469006E-04 1.828678559E-04
 -3.880800216E-04 1.389868892E-05 6.915094061E-05 5.072646115E-05
 -3.557486929E-01 3.419947028E+00 7.120667299E-01
1   ATOM  8
                                        -------------------
   COORD  1                             NUCLEAR COORDINATES
                                        -------------------
     VIB  2

                       ATOM             X              Y              Z

                 1  CL               2.880774       0.521130       1.761640
                 2  C                5.308278      -0.128388      -0.392496
                 3  C                5.534573       1.894072      -2.363140
                 4  O                6.680673       1.514710      -4.359031
                 5  H                4.890403      -2.008004      -1.264775
                 6  H                7.113080      -0.249671       0.708326
                 7  H                4.647970       3.750256      -1.926160
                 8  O                8.512985      -2.939601      -7.958883
                 9  H                7.915684      -1.508058      -7.010373
                10  H                7.863622      -2.652344      -9.631102
                11  O                5.916392       0.881425      -9.768107
                12  H                6.652308       1.565260     -11.285217
                13  H                6.239441       2.166117      -8.517505

 MOPAC ONE- AND TWO-ELECTRON INTEGRALS REQUIRE      2933 WORDS.
 ...... END OF ONE- AND TWO-ELECTRON INTEGRALS......
 STEP CPU TIME =     0.00 TOTAL CPU TIME =          7.1 (      0.1 MIN)
 TOTAL WALL CLOCK TIME=          7.1 SECONDS, CPU UTILIZATION IS   100.00%
 ...... END OF ONE-ELECTRON INTEGRALS ......
 STEP CPU TIME =     0.00 TOTAL CPU TIME =          7.1 (      0.1 MIN)
 TOTAL WALL CLOCK TIME=          7.1 SECONDS, CPU UTILIZATION IS   100.00%

     ----------------------------
     INPUT FOR TESSERA DEFINITION
     ----------------------------
     NTSALL  =        60     MTHALL  =         4
     MTHAUT  =         0     AUTFRE  =    2.0000
     NTSFRZ  =        60     KEEPSM  =         0
     AREAKP  =   10.0000     BONDRY  =    1.0000
     AREATL  =    0.0100

     SPHERE     INITS       METHOD
          1        60       FIXPVA
          2        60       FIXPVA
          3        60       FIXPVA
          4        60       FIXPVA
          5        60       FIXPVA
          6        60       FIXPVA
          7        60       FIXPVA
          8        60       FIXPVA
          9        60       FIXPVA
         10        60       FIXPVA
         11        60       FIXPVA
         12        60       FIXPVA
         13        60       FIXPVA

     ------------------------------
      FIXPVA TESSELLATION FOR PCM
         PEIFENG SU AND HUI LI
     UNIVERSITY OF NEBRASKA-LINCOLN
     ------------------------------


     INPUT FOR CAVITY DEFINITION 
     ---------------------------
   ATOM               COORDINATES                RADIUS       EPS
      1      1.5244      0.2758      0.9322      1.8100     78.3900
      2      2.8090     -0.0679     -0.2077      1.7000     78.3900
      3      2.9288      1.0023     -1.2505      1.7000     78.3900
      4      3.5353      0.8015     -2.3067      1.5000     78.3900
      5      2.5879     -1.0626     -0.6693      1.2000     78.3900
      6      3.7641     -0.1321      0.3748      1.2000     78.3900
      7      2.4596      1.9845     -1.0193      1.2000     78.3900
      8      4.5049     -1.5556     -4.2117      1.5000     78.3900
      9      4.1888     -0.7980     -3.7097      1.2000     78.3900
     10      4.1612     -1.4036     -5.0966      1.2000     78.3900
     11      3.1308      0.4664     -5.1691      1.5000     78.3900
     12      3.5202      0.8283     -5.9719      1.2000     78.3900
     13      3.3018      1.1463     -4.5073      1.2000     78.3900

 MEMORY USED TO GENERATE CAVITY=    262582


 TOTAL NUMBER OF SPHERES=    13
 SPHERE           CENTER  (X,Y,Z) (A)               RADIUS (A)      AREA(A*A)
     1   1.524440000   0.275770000   0.932220000   2.172000000  38.490629521
     2   2.809020000  -0.067940000  -0.207700000   2.040000000   3.657223925
     3   2.928770000   1.002300000  -1.250520000   2.040000000  12.181771764
     4   3.535260000   0.801550000  -2.306700000   1.800000000   8.983105090
     5   2.587890000  -1.062590000  -0.669290000   1.440000000   7.101525378
     6   3.764080000  -0.132120000   0.374830000   1.440000000   8.266216870
     7   2.459600000   1.984550000  -1.019280000   1.440000000   7.030749145
     8   4.504878228  -1.555570000  -4.211660000   1.800000000  20.242968384
     9   4.188800000  -0.798030000  -3.709730000   1.440000000   0.604013439
    10   4.161250000  -1.403560000  -5.096560000   1.440000000   4.873472186
    11   3.130820000   0.466430000  -5.169060000   1.800000000  12.439258795
    12   3.520250000   0.828300000  -5.971880000   1.440000000   9.846210854
    13   3.301770000   1.146260000  -4.507270000   1.440000000   4.778707503

 TOTAL NUMBER OF TESSERAE=     271
 SURFACE AREA=   138.49585285(A**2)    CAVITY VOLUME=    119.39680873 (A**3)
 STEP CPU TIME =     0.00 TOTAL CPU TIME =          7.1 (      0.1 MIN)
 TOTAL WALL CLOCK TIME=          7.1 SECONDS, CPU UTILIZATION IS   100.00%

          THE SOLUTE IS ENCLOSED IN ONE CAVITY
 DONE CHECKING SEPARATION.
 STEP CPU TIME =     0.00 TOTAL CPU TIME =          7.1 (      0.1 MIN)
 TOTAL WALL CLOCK TIME=          7.1 SECONDS, CPU UTILIZATION IS   100.00%
 
 ..... DONE SETTING UP PCM CALCULATION .....
 STEP CPU TIME =     0.00 TOTAL CPU TIME =          7.1 (      0.1 MIN)
 TOTAL WALL CLOCK TIME=          7.1 SECONDS, CPU UTILIZATION IS   100.00%

          --------------------------
               R-AM1 SCF CALCULATION
          --------------------------
     DENSITY MATRIX CONV=  1.00E-05

 ITER EX DEM     TOTAL ENERGY        E CHANGE  DENSITY CHANGE    DIIS ERROR
   1  0  0      -62.0866028282   -62.0866028282   0.002210621   0.000000000
   2  1  0      -62.0866111537    -0.0000083255   0.001207848   0.000000000
   3  2  0      -62.0866134294    -0.0000022757   0.000658735   0.000000000
   4  3  0      -62.0866141035    -0.0000006741   0.000359785   0.000000000
   5  4  0      -62.0866143073    -0.0000002038   0.000196965   0.000000000
   6  5  0      -62.0866143695    -0.0000000622   0.000108087   0.000000000
   7  6  0      -62.0866143885    -0.0000000190   0.000059444   0.000000000
   8  7  0      -62.0866143944    -0.0000000059   0.000032755   0.000000000
   9  8  0      -62.0866143962    -0.0000000018   0.000018078   0.000000000
  10  9  0      -62.0866143968    -0.0000000006   0.000009992   0.000000000
  11 10  0      -62.0866143969    -0.0000000001   0.000005529   0.000000000

          -----------------
          DENSITY CONVERGED
          -----------------
     TIME TO FORM FOCK OPERATORS=       0.1 SECONDS (       0.0 SEC/ITER)
     TIME TO SOLVE SCF EQUATIONS=       0.0 SECONDS (       0.0 SEC/ITER)

 FINAL R-AM1 ENERGY IS      -62.0866143969 AFTER  11 ITERATIONS

 HEAT OF FORMATION IS      -182.98419 KCAL/MOL
 
  
   PCM ASC=      0.0394059424
   GCAVP  =      0.0000000000
   GDISP  =      0.0000000000
   GREP   =      0.0000000000
 ...... END OF RHF CALCULATION ......
 STEP CPU TIME =     0.13 TOTAL CPU TIME =          7.3 (      0.1 MIN)
 TOTAL WALL CLOCK TIME=          7.3 SECONDS, CPU UTILIZATION IS   100.00%
 
 .... DONE WITH PCM CONTRIBUTION TO GRADIENT ....
 STEP CPU TIME =     0.01 TOTAL CPU TIME =          7.3 (      0.1 MIN)
 TOTAL WALL CLOCK TIME=          7.3 SECONDS, CPU UTILIZATION IS   100.00%
 STEP CPU TIME =     0.00 TOTAL CPU TIME =          7.3 (      0.1 MIN)
 TOTAL WALL CLOCK TIME=          7.3 SECONDS, CPU UTILIZATION IS   100.00%

 UNITS ARE HARTREE/BOHR    E'X               E'Y               E'Z 
    1 CL              -0.000038341      -0.000028051       0.000007595
    2 C               -0.000050771      -0.000031204       0.000057770
    3 C               -0.000080682       0.000073729       0.000051758
    4 O                0.000084981       0.000002851      -0.000157369
    5 H               -0.000011650      -0.000071468      -0.000030595
    6 H                0.000032958      -0.000006782       0.000036457
    7 H               -0.000026272       0.000013011       0.000006295
    8 O               -0.001379283       0.001876767      -0.000877282
    9 H                0.000687677      -0.001220998      -0.000355611
   10 H                0.000770411      -0.000591489       0.001256523
   11 O               -0.000134763      -0.000268284       0.000339205
   12 H                0.000129235       0.000182261      -0.000388115
   13 H                0.000016500       0.000069656       0.000053371
  $VIB   
          IVIB=   2 IATOM=   8 ICOORD=   1 E=      -62.0866143969
 -3.834123665E-05-2.805101639E-05 7.595422348E-06-5.077053894E-05-3.120388075E-05
  5.776963645E-05-8.068151705E-05 7.372898769E-05 5.175758119E-05 8.498115979E-05
  2.851242242E-06-1.573692427E-04-1.164961705E-05-7.146754209E-05-3.059520516E-05
  3.295784525E-05-6.781835476E-06 3.645661825E-05-2.627218504E-05 1.301070095E-05
  6.294521898E-06-1.379283312E-03 1.876767389E-03-8.772818237E-04 6.876768869E-04
 -1.220998104E-03-3.556108966E-04 7.704109772E-04-5.914891924E-04 1.256523226E-03
 -1.347634427E-04-2.682837325E-04 3.392045986E-04 1.292346891E-04 1.822610715E-04
 -3.881154766E-04 1.650029074E-05 6.965591263E-05 5.337103970E-05
 -3.407904684E-01 3.422208608E+00 7.147552498E-01
1   ATOM  8
                                        -------------------
   COORD  2                             NUCLEAR COORDINATES
                                        -------------------
     VIB  2

                       ATOM             X              Y              Z

                 1  CL               2.880774       0.521130       1.761640
                 2  C                5.308278      -0.128388      -0.392496
                 3  C                5.534573       1.894072      -2.363140
                 4  O                6.680673       1.514710      -4.359031
                 5  H                4.890403      -2.008004      -1.264775
                 6  H                7.113080      -0.249671       0.708326
                 7  H                4.647970       3.750256      -1.926160
                 8  O                8.522985      -2.949601      -7.958883
                 9  H                7.915684      -1.508058      -7.010373
                10  H                7.863622      -2.652344      -9.631102
                11  O                5.916392       0.881425      -9.768107
                12  H                6.652308       1.565260     -11.285217
                13  H                6.239441       2.166117      -8.517505

 MOPAC ONE- AND TWO-ELECTRON INTEGRALS REQUIRE      2933 WORDS.
 ...... END OF ONE- AND TWO-ELECTRON INTEGRALS......
 STEP CPU TIME =     0.00 TOTAL CPU TIME =          7.3 (      0.1 MIN)
 TOTAL WALL CLOCK TIME=          7.3 SECONDS, CPU UTILIZATION IS   100.00%
 ...... END OF ONE-ELECTRON INTEGRALS ......
 STEP CPU TIME =     0.00 TOTAL CPU TIME =          7.3 (      0.1 MIN)
 TOTAL WALL CLOCK TIME=          7.3 SECONDS, CPU UTILIZATION IS   100.00%

     ----------------------------
     INPUT FOR TESSERA DEFINITION
     ----------------------------
     NTSALL  =        60     MTHALL  =         4
     MTHAUT  =         0     AUTFRE  =    2.0000
     NTSFRZ  =        60     KEEPSM  =         0
     AREAKP  =   10.0000     BONDRY  =    1.0000
     AREATL  =    0.0100

     SPHERE     INITS       METHOD
          1        60       FIXPVA
          2        60       FIXPVA
          3        60       FIXPVA
          4        60       FIXPVA
          5        60       FIXPVA
          6        60       FIXPVA
          7        60       FIXPVA
          8        60       FIXPVA
          9        60       FIXPVA
         10        60       FIXPVA
         11        60       FIXPVA
         12        60       FIXPVA
         13        60       FIXPVA

     ------------------------------
      FIXPVA TESSELLATION FOR PCM
         PEIFENG SU AND HUI LI
     UNIVERSITY OF NEBRASKA-LINCOLN
     ------------------------------


     INPUT FOR CAVITY DEFINITION 
     ---------------------------
   ATOM               COORDINATES                RADIUS       EPS
      1      1.5244      0.2758      0.9322      1.8100     78.3900
      2      2.8090     -0.0679     -0.2077      1.7000     78.3900
      3      2.9288      1.0023     -1.2505      1.7000     78.3900
      4      3.5353      0.8015     -2.3067      1.5000     78.3900
      5      2.5879     -1.0626     -0.6693      1.2000     78.3900
      6      3.7641     -0.1321      0.3748      1.2000     78.3900
      7      2.4596      1.9845     -1.0193      1.2000     78.3900
      8      4.5102     -1.5609     -4.2117      1.5000     78.3900
      9      4.1888     -0.7980     -3.7097      1.2000     78.3900
     10      4.1612     -1.4036     -5.0966      1.2000     78.3900
     11      3.1308      0.4664     -5.1691      1.5000     78.3900
     12      3.5202      0.8283     -5.9719      1.2000     78.3900
     13      3.3018      1.1463     -4.5073      1.2000     78.3900

 MEMORY USED TO GENERATE CAVITY=    262582


 TOTAL NUMBER OF SPHERES=    13
 SPHERE           CENTER  (X,Y,Z) (A)               RADIUS (A)      AREA(A*A)
     1   1.524440000   0.275770000   0.932220000   2.172000000  38.490629521
     2   2.809020000  -0.067940000  -0.207700000   2.040000000   3.657223925
     3   2.928770000   1.002300000  -1.250520000   2.040000000  12.181771764
     4   3.535260000   0.801550000  -2.306700000   1.800000000   8.978743451
     5   2.587890000  -1.062590000  -0.669290000   1.440000000   7.103816611
     6   3.764080000  -0.132120000   0.374830000   1.440000000   8.266216870
     7   2.459600000   1.984550000  -1.019280000   1.440000000   7.030749145
     8   4.510170000  -1.560861772  -4.211660000   1.800000000  20.270741247
     9   4.188800000  -0.798030000  -3.709730000   1.440000000   0.606563778
    10   4.161250000  -1.403560000  -5.096560000   1.440000000   4.850329938
    11   3.130820000   0.466430000  -5.169060000   1.800000000  12.439258795
    12   3.520250000   0.828300000  -5.971880000   1.440000000   9.846554760
    13   3.301770000   1.146260000  -4.507270000   1.440000000   4.778707624

 TOTAL NUMBER OF TESSERAE=     272
 SURFACE AREA=   138.50130743(A**2)    CAVITY VOLUME=    119.38230968 (A**3)
 STEP CPU TIME =     0.00 TOTAL CPU TIME =          7.3 (      0.1 MIN)
 TOTAL WALL CLOCK TIME=          7.3 SECONDS, CPU UTILIZATION IS   100.00%

          THE SOLUTE IS ENCLOSED IN ONE CAVITY
 DONE CHECKING SEPARATION.
 STEP CPU TIME =     0.00 TOTAL CPU TIME =          7.3 (      0.1 MIN)
 TOTAL WALL CLOCK TIME=          7.3 SECONDS, CPU UTILIZATION IS   100.00%
 
 ..... DONE SETTING UP PCM CALCULATION .....
 STEP CPU TIME =     0.00 TOTAL CPU TIME =          7.3 (      0.1 MIN)
 TOTAL WALL CLOCK TIME=          7.3 SECONDS, CPU UTILIZATION IS   100.00%

          --------------------------
               R-AM1 SCF CALCULATION
          --------------------------
     DENSITY MATRIX CONV=  1.00E-05

 ITER EX DEM     TOTAL ENERGY        E CHANGE  DENSITY CHANGE    DIIS ERROR
   1  0  0      -62.0865951561   -62.0865951561   0.001655823   0.000000000
   2  1  0      -62.0866022188    -0.0000070627   0.000850184   0.000000000
   3  2  0      -62.0866035697    -0.0000013509   0.000450835   0.000000000
   4  3  0      -62.0866039109    -0.0000003411   0.000239077   0.000000000
   5  4  0      -62.0866040047    -0.0000000939   0.000127068   0.000000000
   6  5  0      -62.0866040315    -0.0000000268   0.000067774   0.000000000
   7  6  0      -62.0866040394    -0.0000000079   0.000036298   0.000000000
   8  7  0      -62.0866040417    -0.0000000023   0.000019525   0.000000000
   9  8  0      -62.0866040425    -0.0000000008   0.000010547   0.000000000
  10  9  0      -62.0866040427    -0.0000000002   0.000005721   0.000000000

          -----------------
          DENSITY CONVERGED
          -----------------
     TIME TO FORM FOCK OPERATORS=       0.1 SECONDS (       0.0 SEC/ITER)
     TIME TO SOLVE SCF EQUATIONS=       0.0 SECONDS (       0.0 SEC/ITER)

 FINAL R-AM1 ENERGY IS      -62.0866040427 AFTER  10 ITERATIONS

 HEAT OF FORMATION IS      -182.97769 KCAL/MOL
 
  
   PCM ASC=      0.0394021724
   GCAVP  =      0.0000000000
   GDISP  =      0.0000000000
   GREP   =      0.0000000000
 ...... END OF RHF CALCULATION ......
 STEP CPU TIME =     0.12 TOTAL CPU TIME =          7.4 (      0.1 MIN)
 TOTAL WALL CLOCK TIME=          7.4 SECONDS, CPU UTILIZATION IS   100.00%
 
 .... DONE WITH PCM CONTRIBUTION TO GRADIENT ....
 STEP CPU TIME =     0.00 TOTAL CPU TIME =          7.4 (      0.1 MIN)
 TOTAL WALL CLOCK TIME=          7.4 SECONDS, CPU UTILIZATION IS   100.00%
 STEP CPU TIME =     0.00 TOTAL CPU TIME =          7.4 (      0.1 MIN)
 TOTAL WALL CLOCK TIME=          7.4 SECONDS, CPU UTILIZATION IS   100.00%

 UNITS ARE HARTREE/BOHR    E'X               E'Y               E'Z 
    1 CL              -0.000038513      -0.000028135       0.000007701
    2 C               -0.000050441      -0.000031366       0.000058217
    3 C               -0.000078751       0.000075490       0.000047044
    4 O                0.000079322       0.000015468      -0.000141069
    5 H               -0.000011883      -0.000070541      -0.000029407
    6 H                0.000032690      -0.000006825       0.000036478
    7 H               -0.000026904       0.000012492       0.000006918
    8 O                0.001883794      -0.003424765      -0.000766346
    9 H               -0.001320631       0.002805571       0.001228071
   10 H               -0.000460020       0.000636233      -0.000427914
   11 O               -0.000148102      -0.000227152       0.000314298
   12 H                0.000124449       0.000180567      -0.000384653
   13 H                0.000014991       0.000062962       0.000050662
  $VIB   
          IVIB=   2 IATOM=   8 ICOORD=   2 E=      -62.0866040427
 -3.851292200E-05-2.813488195E-05 7.700957617E-06-5.044122571E-05-3.136563828E-05
  5.821692377E-05-7.875144189E-05 7.548966318E-05 4.704415346E-05 7.932182719E-05
  1.546757924E-05-1.410694375E-04-1.188290632E-05-7.054063063E-05-2.940659843E-05
  3.268964635E-05-6.824546016E-06 3.647815617E-05-2.690355782E-05 1.249217136E-05
  6.917815183E-06 1.883794050E-03-3.424764637E-03-7.663463310E-04-1.320630883E-03
  2.805571292E-03 1.228070873E-03-4.600203418E-04 6.362325118E-04-4.279138274E-04
 -1.481020191E-04-2.271521854E-04 3.142977018E-04 1.244492663E-04 1.805674336E-04
 -3.846526321E-04 1.499050703E-05 6.296186852E-05 5.066224492E-05
 -3.520844461E-01 3.429668439E+00 7.157307634E-01
1   ATOM  8
                                        -------------------
   COORD  3                             NUCLEAR COORDINATES
                                        -------------------
     VIB  2

                       ATOM             X              Y              Z

                 1  CL               2.880774       0.521130       1.761640
                 2  C                5.308278      -0.128388      -0.392496
                 3  C                5.534573       1.894072      -2.363140
                 4  O                6.680673       1.514710      -4.359031
                 5  H                4.890403      -2.008004      -1.264775
                 6  H                7.113080      -0.249671       0.708326
                 7  H                4.647970       3.750256      -1.926160
                 8  O                8.522985      -2.939601      -7.968883
                 9  H                7.915684      -1.508058      -7.010373
                10  H                7.863622      -2.652344      -9.631102
                11  O                5.916392       0.881425      -9.768107
                12  H                6.652308       1.565260     -11.285217
                13  H                6.239441       2.166117      -8.517505

 MOPAC ONE- AND TWO-ELECTRON INTEGRALS REQUIRE      2933 WORDS.
 ...... END OF ONE- AND TWO-ELECTRON INTEGRALS......
 STEP CPU TIME =     0.00 TOTAL CPU TIME =          7.4 (      0.1 MIN)
 TOTAL WALL CLOCK TIME=          7.4 SECONDS, CPU UTILIZATION IS   100.00%
 ...... END OF ONE-ELECTRON INTEGRALS ......
 STEP CPU TIME =     0.00 TOTAL CPU TIME =          7.4 (      0.1 MIN)
 TOTAL WALL CLOCK TIME=          7.4 SECONDS, CPU UTILIZATION IS   100.00%

     ----------------------------
     INPUT FOR TESSERA DEFINITION
     ----------------------------
     NTSALL  =        60     MTHALL  =         4
     MTHAUT  =         0     AUTFRE  =    2.0000
     NTSFRZ  =        60     KEEPSM  =         0
     AREAKP  =   10.0000     BONDRY  =    1.0000
     AREATL  =    0.0100

     SPHERE     INITS       METHOD
          1        60       FIXPVA
          2        60       FIXPVA
          3        60       FIXPVA
          4        60       FIXPVA
          5        60       FIXPVA
          6        60       FIXPVA
          7        60       FIXPVA
          8        60       FIXPVA
          9        60       FIXPVA
         10        60       FIXPVA
         11        60       FIXPVA
         12        60       FIXPVA
         13        60       FIXPVA

     ------------------------------
      FIXPVA TESSELLATION FOR PCM
         PEIFENG SU AND HUI LI
     UNIVERSITY OF NEBRASKA-LINCOLN
     ------------------------------


     INPUT FOR CAVITY DEFINITION 
     ---------------------------
   ATOM               COORDINATES                RADIUS       EPS
      1      1.5244      0.2758      0.9322      1.8100     78.3900
      2      2.8090     -0.0679     -0.2077      1.7000     78.3900
      3      2.9288      1.0023     -1.2505      1.7000     78.3900
      4      3.5353      0.8015     -2.3067      1.5000     78.3900
      5      2.5879     -1.0626     -0.6693      1.2000     78.3900
      6      3.7641     -0.1321      0.3748      1.2000     78.3900
      7      2.4596      1.9845     -1.0193      1.2000     78.3900
      8      4.5102     -1.5556     -4.2170      1.5000     78.3900
      9      4.1888     -0.7980     -3.7097      1.2000     78.3900
     10      4.1612     -1.4036     -5.0966      1.2000     78.3900
     11      3.1308      0.4664     -5.1691      1.5000     78.3900
     12      3.5202      0.8283     -5.9719      1.2000     78.3900
     13      3.3018      1.1463     -4.5073      1.2000     78.3900

 MEMORY USED TO GENERATE CAVITY=    262582


 TOTAL NUMBER OF SPHERES=    13
 SPHERE           CENTER  (X,Y,Z) (A)               RADIUS (A)      AREA(A*A)
     1   1.524440000   0.275770000   0.932220000   2.172000000  38.490629521
     2   2.809020000  -0.067940000  -0.207700000   2.040000000   3.657223925
     3   2.928770000   1.002300000  -1.250520000   2.040000000  12.181771764
     4   3.535260000   0.801550000  -2.306700000   1.800000000   8.985824856
     5   2.587890000  -1.062590000  -0.669290000   1.440000000   7.105962173
     6   3.764080000  -0.132120000   0.374830000   1.440000000   8.266216870
     7   2.459600000   1.984550000  -1.019280000   1.440000000   7.030749145
     8   4.510170000  -1.555570000  -4.216951772   1.800000000  20.283180030
     9   4.188800000  -0.798030000  -3.709730000   1.440000000   0.605072494
    10   4.161250000  -1.403560000  -5.096560000   1.440000000   4.823422478
    11   3.130820000   0.466430000  -5.169060000   1.800000000  12.439258795
    12   3.520250000   0.828300000  -5.971880000   1.440000000   9.844654683
    13   3.301770000   1.146260000  -4.507270000   1.440000000   4.778707344

 TOTAL NUMBER OF TESSERAE=     272
 SURFACE AREA=   138.49267408(A**2)    CAVITY VOLUME=    119.32244708 (A**3)
 STEP CPU TIME =     0.00 TOTAL CPU TIME =          7.4 (      0.1 MIN)
 TOTAL WALL CLOCK TIME=          7.4 SECONDS, CPU UTILIZATION IS   100.00%

          THE SOLUTE IS ENCLOSED IN ONE CAVITY
 DONE CHECKING SEPARATION.
 STEP CPU TIME =     0.00 TOTAL CPU TIME =          7.4 (      0.1 MIN)
 TOTAL WALL CLOCK TIME=          7.4 SECONDS, CPU UTILIZATION IS   100.00%
 
 ..... DONE SETTING UP PCM CALCULATION .....
 STEP CPU TIME =     0.00 TOTAL CPU TIME =          7.4 (      0.1 MIN)
 TOTAL WALL CLOCK TIME=          7.4 SECONDS, CPU UTILIZATION IS   100.00%

          --------------------------
               R-AM1 SCF CALCULATION
          --------------------------
     DENSITY MATRIX CONV=  1.00E-05

 ITER EX DEM     TOTAL ENERGY        E CHANGE  DENSITY CHANGE    DIIS ERROR
   1  0  0      -62.0865881231   -62.0865881231   0.001667943   0.000000000
   2  1  0      -62.0865957997    -0.0000076766   0.000662981   0.000000000
   3  2  0      -62.0865966630    -0.0000008633   0.000280710   0.000000000
   4  3  0      -62.0865968192    -0.0000001562   0.000131431   0.000000000
   5  4  0      -62.0865968537    -0.0000000345   0.000067461   0.000000000
   6  5  0      -62.0865968621    -0.0000000084   0.000034931   0.000000000
   7  6  0      -62.0865968642    -0.0000000022   0.000018268   0.000000000
   8  7  0      -62.0865968648    -0.0000000006   0.000009646   0.000000000
   9  8  0      -62.0865968650    -0.0000000002   0.000005138   0.000000000

          -----------------
          DENSITY CONVERGED
          -----------------
     TIME TO FORM FOCK OPERATORS=       0.1 SECONDS (       0.0 SEC/ITER)
     TIME TO SOLVE SCF EQUATIONS=       0.0 SECONDS (       0.0 SEC/ITER)

 FINAL R-AM1 ENERGY IS      -62.0865968650 AFTER   9 ITERATIONS

 HEAT OF FORMATION IS      -182.97319 KCAL/MOL
 
  
   PCM ASC=      0.0394150182
   GCAVP  =      0.0000000000
   GDISP  =      0.0000000000
   GREP   =      0.0000000000
 ...... END OF RHF CALCULATION ......
 STEP CPU TIME =     0.08 TOTAL CPU TIME =          7.5 (      0.1 MIN)
 TOTAL WALL CLOCK TIME=          7.5 SECONDS, CPU UTILIZATION IS   100.00%
 
 .... DONE WITH PCM CONTRIBUTION TO GRADIENT ....
 STEP CPU TIME =     0.02 TOTAL CPU TIME =          7.5 (      0.1 MIN)
 TOTAL WALL CLOCK TIME=          7.5 SECONDS, CPU UTILIZATION IS   100.00%
 STEP CPU TIME =     0.00 TOTAL CPU TIME =          7.5 (      0.1 MIN)
 TOTAL WALL CLOCK TIME=          7.5 SECONDS, CPU UTILIZATION IS   100.00%

 UNITS ARE HARTREE/BOHR    E'X               E'Y               E'Z 
    1 CL              -0.000038819      -0.000028206       0.000007980
    2 C               -0.000050220      -0.000031504       0.000058774
    3 C               -0.000076890       0.000074566       0.000043191
    4 O                0.000078449       0.000018474      -0.000138425
    5 H               -0.000012608      -0.000069076      -0.000028252
    6 H                0.000032411      -0.000006848       0.000036336
    7 H               -0.000027157       0.000012287       0.000007238
    8 O               -0.000888150      -0.000790115      -0.004892211
    9 H               -0.000593641       0.001638516       0.001387239
   10 H                0.001560077      -0.000798980       0.003533743
   11 O               -0.000126559      -0.000271282       0.000319331
   12 H                0.000126199       0.000186179      -0.000389878
   13 H                0.000016909       0.000065988       0.000054932
  $VIB   
          IVIB=   2 IATOM=   8 ICOORD=   3 E=      -62.0865968650
 -3.881894694E-05-2.820590595E-05 7.980386851E-06-5.021997455E-05-3.150404824E-05
  5.877420154E-05-7.688995454E-05 7.456589844E-05 4.319125035E-05 7.844856541E-05
  1.847367200E-05-1.384247275E-04-1.260816062E-05-6.907571071E-05-2.825170880E-05
  3.241052971E-05-6.847665679E-06 3.633601322E-05-2.715691134E-05 1.228662122E-05
  7.237646466E-06-8.881497544E-04-7.901148447E-04-4.892210544E-03-5.936411426E-04
  1.638516378E-03 1.387238899E-03 1.560077192E-03-7.989796276E-04 3.533743298E-03
 -1.265594592E-04-2.712818414E-04 3.193308852E-04 1.261994444E-04 1.861790970E-04
 -3.898780360E-04 1.690857298E-05 6.598797800E-05 5.493243556E-05
 -3.577953492E-01 3.417504680E+00 7.265403414E-01
1   ATOM  9
                                        -------------------
   COORD  1                             NUCLEAR COORDINATES
                                        -------------------
     VIB  2

                       ATOM             X              Y              Z

                 1  CL               2.880774       0.521130       1.761640
                 2  C                5.308278      -0.128388      -0.392496
                 3  C                5.534573       1.894072      -2.363140
                 4  O                6.680673       1.514710      -4.359031
                 5  H                4.890403      -2.008004      -1.264775
                 6  H                7.113080      -0.249671       0.708326
                 7  H                4.647970       3.750256      -1.926160
                 8  O                8.522985      -2.939601      -7.958883
                 9  H                7.905684      -1.508058      -7.010373
                10  H                7.863622      -2.652344      -9.631102
                11  O                5.916392       0.881425      -9.768107
                12  H                6.652308       1.565260     -11.285217
                13  H                6.239441       2.166117      -8.517505

 MOPAC ONE- AND TWO-ELECTRON INTEGRALS REQUIRE      2933 WORDS.
 ...... END OF ONE- AND TWO-ELECTRON INTEGRALS......
 STEP CPU TIME =     0.00 TOTAL CPU TIME =          7.5 (      0.1 MIN)
 TOTAL WALL CLOCK TIME=          7.5 SECONDS, CPU UTILIZATION IS   100.00%
 ...... END OF ONE-ELECTRON INTEGRALS ......
 STEP CPU TIME =     0.00 TOTAL CPU TIME =          7.5 (      0.1 MIN)
 TOTAL WALL CLOCK TIME=          7.5 SECONDS, CPU UTILIZATION IS   100.00%

     ----------------------------
     INPUT FOR TESSERA DEFINITION
     ----------------------------
     NTSALL  =        60     MTHALL  =         4
     MTHAUT  =         0     AUTFRE  =    2.0000
     NTSFRZ  =        60     KEEPSM  =         0
     AREAKP  =   10.0000     BONDRY  =    1.0000
     AREATL  =    0.0100

     SPHERE     INITS       METHOD
          1        60       FIXPVA
          2        60       FIXPVA
          3        60       FIXPVA
          4        60       FIXPVA
          5        60       FIXPVA
          6        60       FIXPVA
          7        60       FIXPVA
          8        60       FIXPVA
          9        60       FIXPVA
         10        60       FIXPVA
         11        60       FIXPVA
         12        60       FIXPVA
         13        60       FIXPVA

     ------------------------------
      FIXPVA TESSELLATION FOR PCM
         PEIFENG SU AND HUI LI
     UNIVERSITY OF NEBRASKA-LINCOLN
     ------------------------------


     INPUT FOR CAVITY DEFINITION 
     ---------------------------
   ATOM               COORDINATES                RADIUS       EPS
      1      1.5244      0.2758      0.9322      1.8100     78.3900
      2      2.8090     -0.0679     -0.2077      1.7000     78.3900
      3      2.9288      1.0023     -1.2505      1.7000     78.3900
      4      3.5353      0.8015     -2.3067      1.5000     78.3900
      5      2.5879     -1.0626     -0.6693      1.2000     78.3900
      6      3.7641     -0.1321      0.3748      1.2000     78.3900
      7      2.4596      1.9845     -1.0193      1.2000     78.3900
      8      4.5102     -1.5556     -4.2117      1.5000     78.3900
      9      4.1835     -0.7980     -3.7097      1.2000     78.3900
     10      4.1612     -1.4036     -5.0966      1.2000     78.3900
     11      3.1308      0.4664     -5.1691      1.5000     78.3900
     12      3.5202      0.8283     -5.9719      1.2000     78.3900
     13      3.3018      1.1463     -4.5073      1.2000     78.3900

 MEMORY USED TO GENERATE CAVITY=    262582


 TOTAL NUMBER OF SPHERES=    13
 SPHERE           CENTER  (X,Y,Z) (A)               RADIUS (A)      AREA(A*A)
     1   1.524440000   0.275770000   0.932220000   2.172000000  38.490629521
     2   2.809020000  -0.067940000  -0.207700000   2.040000000   3.657230773
     3   2.928770000   1.002300000  -1.250520000   2.040000000  12.181771764
     4   3.535260000   0.801550000  -2.306700000   1.800000000   8.987161100
     5   2.587890000  -1.062590000  -0.669290000   1.440000000   7.099609938
     6   3.764080000  -0.132120000   0.374830000   1.440000000   8.266216870
     7   2.459600000   1.984550000  -1.019280000   1.440000000   7.030749145
     8   4.510170000  -1.555570000  -4.211660000   1.800000000  20.269671658
     9   4.183508228  -0.798030000  -3.709730000   1.440000000   0.575572040
    10   4.161250000  -1.403560000  -5.096560000   1.440000000   4.865670340
    11   3.130820000   0.466430000  -5.169060000   1.800000000  12.439258795
    12   3.520250000   0.828300000  -5.971880000   1.440000000   9.845730034
    13   3.301770000   1.146260000  -4.507270000   1.440000000   4.778813069

 TOTAL NUMBER OF TESSERAE=     272
 SURFACE AREA=   138.48808505(A**2)    CAVITY VOLUME=    119.38267837 (A**3)
 STEP CPU TIME =     0.00 TOTAL CPU TIME =          7.5 (      0.1 MIN)
 TOTAL WALL CLOCK TIME=          7.5 SECONDS, CPU UTILIZATION IS   100.00%

          THE SOLUTE IS ENCLOSED IN ONE CAVITY
 DONE CHECKING SEPARATION.
 STEP CPU TIME =     0.00 TOTAL CPU TIME =          7.5 (      0.1 MIN)
 TOTAL WALL CLOCK TIME=          7.5 SECONDS, CPU UTILIZATION IS   100.00%
 
 ..... DONE SETTING UP PCM CALCULATION .....
 STEP CPU TIME =     0.00 TOTAL CPU TIME =          7.5 (      0.1 MIN)
 TOTAL WALL CLOCK TIME=          7.5 SECONDS, CPU UTILIZATION IS   100.00%

          --------------------------
               R-AM1 SCF CALCULATION
          --------------------------
     DENSITY MATRIX CONV=  1.00E-05

 ITER EX DEM     TOTAL ENERGY        E CHANGE  DENSITY CHANGE    DIIS ERROR
   1  0  0      -62.0866123630   -62.0866123630   0.001991210   0.000000000
   2  1  0      -62.0866167599    -0.0000043969   0.001036945   0.000000000
   3  2  0      -62.0866178706    -0.0000011107   0.000546761   0.000000000
   4  3  0      -62.0866181798    -0.0000003091   0.000290725   0.000000000
   5  4  0      -62.0866182687    -0.0000000889   0.000155551   0.000000000
   6  5  0      -62.0866182948    -0.0000000261   0.000083635   0.000000000
   7  6  0      -62.0866183025    -0.0000000077   0.000045147   0.000000000
   8  7  0      -62.0866183048    -0.0000000023   0.000024450   0.000000000
   9  8  0      -62.0866183055    -0.0000000007   0.000013277   0.000000000
  10  9  0      -62.0866183057    -0.0000000002   0.000007225   0.000000000

          -----------------
          DENSITY CONVERGED
          -----------------
     TIME TO FORM FOCK OPERATORS=       0.1 SECONDS (       0.0 SEC/ITER)
     TIME TO SOLVE SCF EQUATIONS=       0.0 SECONDS (       0.0 SEC/ITER)

 FINAL R-AM1 ENERGY IS      -62.0866183057 AFTER  10 ITERATIONS

 HEAT OF FORMATION IS      -182.98664 KCAL/MOL
 
  
   PCM ASC=      0.0394027081
   GCAVP  =      0.0000000000
   GDISP  =      0.0000000000
   GREP   =      0.0000000000
 ...... END OF RHF CALCULATION ......
 STEP CPU TIME =     0.12 TOTAL CPU TIME =          7.6 (      0.1 MIN)
 TOTAL WALL CLOCK TIME=          7.6 SECONDS, CPU UTILIZATION IS   100.00%
 
 .... DONE WITH PCM CONTRIBUTION TO GRADIENT ....
 STEP CPU TIME =     0.02 TOTAL CPU TIME =          7.7 (      0.1 MIN)
 TOTAL WALL CLOCK TIME=          7.7 SECONDS, CPU UTILIZATION IS   100.00%
 STEP CPU TIME =     0.00 TOTAL CPU TIME =          7.7 (      0.1 MIN)
 TOTAL WALL CLOCK TIME=          7.7 SECONDS, CPU UTILIZATION IS   100.00%

 UNITS ARE HARTREE/BOHR    E'X               E'Y               E'Z 
    1 CL              -0.000039056      -0.000028097       0.000008144
    2 C               -0.000049732      -0.000031545       0.000058136
    3 C               -0.000075910       0.000074593       0.000042283
    4 O                0.000089256       0.000000204      -0.000149079
    5 H               -0.000011967      -0.000070066      -0.000029123
    6 H                0.000032521      -0.000006891       0.000036365
    7 H               -0.000027480       0.000012028       0.000006903
    8 O                0.000721243      -0.001351778      -0.000596043
    9 H               -0.000591943       0.001215967       0.000535846
   10 H               -0.000076445       0.000210410       0.000074453
   11 O               -0.000111587      -0.000269812       0.000345314
   12 H                0.000123968       0.000187636      -0.000387344
   13 H                0.000017132       0.000057352       0.000054146
  $VIB   
          IVIB=   2 IATOM=   9 ICOORD=   1 E=      -62.0866183057
 -3.905586789E-05-2.809677471E-05 8.143667770E-06-4.973227061E-05-3.154546093E-05
  5.813610748E-05-7.591017863E-05 7.459276375E-05 4.228318205E-05 8.925550332E-05
  2.035488746E-07-1.490789679E-04-1.196663995E-05-7.006618883E-05-2.912282318E-05
  3.252114288E-05-6.891145004E-06 3.636473356E-05-2.748011234E-05 1.202800121E-05
  6.903061701E-06 7.212428567E-04-1.351777501E-03-5.960431953E-04-5.919427144E-04
  1.215966592E-03 5.358455492E-04-7.644508531E-05 2.104102110E-04 7.445318923E-05
 -1.115870594E-04-2.698120585E-04 3.453136027E-04 1.239682017E-04 1.876361861E-04
 -3.873437258E-04 1.713222383E-05 5.735182511E-05 5.414561842E-05
 -3.634501661E-01 3.415585691E+00 7.156744727E-01
1   ATOM  9
                                        -------------------
   COORD  2                             NUCLEAR COORDINATES
                                        -------------------
     VIB  2

                       ATOM             X              Y              Z

                 1  CL               2.880774       0.521130       1.761640
                 2  C                5.308278      -0.128388      -0.392496
                 3  C                5.534573       1.894072      -2.363140
                 4  O                6.680673       1.514710      -4.359031
                 5  H                4.890403      -2.008004      -1.264775
                 6  H                7.113080      -0.249671       0.708326
                 7  H                4.647970       3.750256      -1.926160
                 8  O                8.522985      -2.939601      -7.958883
                 9  H                7.915684      -1.518058      -7.010373
                10  H                7.863622      -2.652344      -9.631102
                11  O                5.916392       0.881425      -9.768107
                12  H                6.652308       1.565260     -11.285217
                13  H                6.239441       2.166117      -8.517505

 MOPAC ONE- AND TWO-ELECTRON INTEGRALS REQUIRE      2933 WORDS.
 ...... END OF ONE- AND TWO-ELECTRON INTEGRALS......
 STEP CPU TIME =     0.00 TOTAL CPU TIME =          7.7 (      0.1 MIN)
 TOTAL WALL CLOCK TIME=          7.7 SECONDS, CPU UTILIZATION IS   100.00%
 ...... END OF ONE-ELECTRON INTEGRALS ......
 STEP CPU TIME =     0.00 TOTAL CPU TIME =          7.7 (      0.1 MIN)
 TOTAL WALL CLOCK TIME=          7.7 SECONDS, CPU UTILIZATION IS   100.00%

     ----------------------------
     INPUT FOR TESSERA DEFINITION
     ----------------------------
     NTSALL  =        60     MTHALL  =         4
     MTHAUT  =         0     AUTFRE  =    2.0000
     NTSFRZ  =        60     KEEPSM  =         0
     AREAKP  =   10.0000     BONDRY  =    1.0000
     AREATL  =    0.0100

     SPHERE     INITS       METHOD
          1        60       FIXPVA
          2        60       FIXPVA
          3        60       FIXPVA
          4        60       FIXPVA
          5        60       FIXPVA
          6        60       FIXPVA
          7        60       FIXPVA
          8        60       FIXPVA
          9        60       FIXPVA
         10        60       FIXPVA
         11        60       FIXPVA
         12        60       FIXPVA
         13        60       FIXPVA

     ------------------------------
      FIXPVA TESSELLATION FOR PCM
         PEIFENG SU AND HUI LI
     UNIVERSITY OF NEBRASKA-LINCOLN
     ------------------------------


     INPUT FOR CAVITY DEFINITION 
     ---------------------------
   ATOM               COORDINATES                RADIUS       EPS
      1      1.5244      0.2758      0.9322      1.8100     78.3900
      2      2.8090     -0.0679     -0.2077      1.7000     78.3900
      3      2.9288      1.0023     -1.2505      1.7000     78.3900
      4      3.5353      0.8015     -2.3067      1.5000     78.3900
      5      2.5879     -1.0626     -0.6693      1.2000     78.3900
      6      3.7641     -0.1321      0.3748      1.2000     78.3900
      7      2.4596      1.9845     -1.0193      1.2000     78.3900
      8      4.5102     -1.5556     -4.2117      1.5000     78.3900
      9      4.1888     -0.8033     -3.7097      1.2000     78.3900
     10      4.1612     -1.4036     -5.0966      1.2000     78.3900
     11      3.1308      0.4664     -5.1691      1.5000     78.3900
     12      3.5202      0.8283     -5.9719      1.2000     78.3900
     13      3.3018      1.1463     -4.5073      1.2000     78.3900

 MEMORY USED TO GENERATE CAVITY=    262582


 TOTAL NUMBER OF SPHERES=    13
 SPHERE           CENTER  (X,Y,Z) (A)               RADIUS (A)      AREA(A*A)
     1   1.524440000   0.275770000   0.932220000   2.172000000  38.490629521
     2   2.809020000  -0.067940000  -0.207700000   2.040000000   3.657225507
     3   2.928770000   1.002300000  -1.250520000   2.040000000  12.181771764
     4   3.535260000   0.801550000  -2.306700000   1.800000000   8.981998642
     5   2.587890000  -1.062590000  -0.669290000   1.440000000   7.101825348
     6   3.764080000  -0.132120000   0.374830000   1.440000000   8.266216870
     7   2.459600000   1.984550000  -1.019280000   1.440000000   7.030749145
     8   4.510170000  -1.555570000  -4.211660000   1.800000000  20.269631378
     9   4.188800000  -0.803321772  -3.709730000   1.440000000   0.576472497
    10   4.161250000  -1.403560000  -5.096560000   1.440000000   4.865445159
    11   3.130820000   0.466430000  -5.169060000   1.800000000  12.439258795
    12   3.520250000   0.828300000  -5.971880000   1.440000000   9.845730209
    13   3.301770000   1.146260000  -4.507270000   1.440000000   4.778939930

 TOTAL NUMBER OF TESSERAE=     272
 SURFACE AREA=   138.48589476(A**2)    CAVITY VOLUME=    119.37563373 (A**3)
 STEP CPU TIME =     0.00 TOTAL CPU TIME =          7.7 (      0.1 MIN)
 TOTAL WALL CLOCK TIME=          7.7 SECONDS, CPU UTILIZATION IS   100.00%

          THE SOLUTE IS ENCLOSED IN ONE CAVITY
 DONE CHECKING SEPARATION.
 STEP CPU TIME =     0.00 TOTAL CPU TIME =          7.7 (      0.1 MIN)
 TOTAL WALL CLOCK TIME=          7.7 SECONDS, CPU UTILIZATION IS   100.00%
 
 ..... DONE SETTING UP PCM CALCULATION .....
 STEP CPU TIME =     0.00 TOTAL CPU TIME =          7.7 (      0.1 MIN)
 TOTAL WALL CLOCK TIME=          7.7 SECONDS, CPU UTILIZATION IS   100.00%

          --------------------------
               R-AM1 SCF CALCULATION
          --------------------------
     DENSITY MATRIX CONV=  1.00E-05

 ITER EX DEM     TOTAL ENERGY        E CHANGE  DENSITY CHANGE    DIIS ERROR
   1  0  0      -62.0866023565   -62.0866023565   0.001188085   0.000000000
   2  1  0      -62.0866066712    -0.0000043147   0.000537866   0.000000000
   3  2  0      -62.0866073070    -0.0000006358   0.000284522   0.000000000
   4  3  0      -62.0866074534    -0.0000001464   0.000151311   0.000000000
   5  4  0      -62.0866074924    -0.0000000390   0.000080792   0.000000000
   6  5  0      -62.0866075032    -0.0000000109   0.000043292   0.000000000
   7  6  0      -62.0866075064    -0.0000000031   0.000023431   0.000000000
   8  7  0      -62.0866075072    -0.0000000009   0.000013100   0.000000000
   9  8  0      -62.0866075076    -0.0000000003   0.000007293   0.000000000

          -----------------
          DENSITY CONVERGED
          -----------------
     TIME TO FORM FOCK OPERATORS=       0.1 SECONDS (       0.0 SEC/ITER)
     TIME TO SOLVE SCF EQUATIONS=       0.0 SECONDS (       0.0 SEC/ITER)

 FINAL R-AM1 ENERGY IS      -62.0866075076 AFTER   9 ITERATIONS

 HEAT OF FORMATION IS      -182.97987 KCAL/MOL
 
  
   PCM ASC=      0.0394075822
   GCAVP  =      0.0000000000
   GDISP  =      0.0000000000
   GREP   =      0.0000000000
 ...... END OF RHF CALCULATION ......
 STEP CPU TIME =     0.09 TOTAL CPU TIME =          7.8 (      0.1 MIN)
 TOTAL WALL CLOCK TIME=          7.8 SECONDS, CPU UTILIZATION IS   100.00%
 
 .... DONE WITH PCM CONTRIBUTION TO GRADIENT ....
 STEP CPU TIME =     0.00 TOTAL CPU TIME =          7.8 (      0.1 MIN)
 TOTAL WALL CLOCK TIME=          7.8 SECONDS, CPU UTILIZATION IS   100.00%
 STEP CPU TIME =     0.00 TOTAL CPU TIME =          7.8 (      0.1 MIN)
 TOTAL WALL CLOCK TIME=          7.8 SECONDS, CPU UTILIZATION IS   100.00%

 UNITS ARE HARTREE/BOHR    E'X               E'Y               E'Z 
    1 CL              -0.000037504      -0.000028092       0.000006678
    2 C               -0.000052363      -0.000030780       0.000057906
    3 C               -0.000084882       0.000068719       0.000062317
    4 O                0.000079865       0.000033346      -0.000144590
    5 H               -0.000012088      -0.000070871      -0.000029438
    6 H                0.000033721      -0.000006754       0.000036442
    7 H               -0.000025097       0.000014258       0.000004632
    8 O               -0.001222326       0.002825958       0.001672146
    9 H                0.001228303      -0.002755174      -0.001692301
   10 H                0.000108611      -0.000095400       0.000048435
   11 O               -0.000149117      -0.000227663       0.000319982
   12 H                0.000129778       0.000179923      -0.000390152
   13 H                0.000003102       0.000092528       0.000047944
  $VIB   
          IVIB=   2 IATOM=   9 ICOORD=   2 E=      -62.0866075076
 -3.750443562E-05-2.809193440E-05 6.678034227E-06-5.236312259E-05-3.077951616E-05
  5.790599186E-05-8.488228562E-05 6.871909110E-05 6.231699502E-05 7.986462618E-05
  3.334649365E-05-1.445902608E-04-1.208814414E-05-7.087113669E-05-2.943798920E-05
  3.372064803E-05-6.754256307E-06 3.644174018E-05-2.509740491E-05 1.425753802E-05
  4.632316201E-06-1.222325970E-03 2.825958440E-03 1.672146228E-03 1.228303106E-03
 -2.755173782E-03-1.692300684E-03 1.086106266E-04-9.540009473E-05 4.843453139E-05
 -1.491172381E-04-2.276625472E-04 3.199815172E-04 1.297776776E-04 1.799233796E-04
 -3.901520858E-04 3.101916714E-06 9.252832549E-05 4.794366577E-05
 -3.583893868E-01 3.414434223E+00 7.192096359E-01
1   ATOM  9
                                        -------------------
   COORD  3                             NUCLEAR COORDINATES
                                        -------------------
     VIB  2

                       ATOM             X              Y              Z

                 1  CL               2.880774       0.521130       1.761640
                 2  C                5.308278      -0.128388      -0.392496
                 3  C                5.534573       1.894072      -2.363140
                 4  O                6.680673       1.514710      -4.359031
                 5  H                4.890403      -2.008004      -1.264775
                 6  H                7.113080      -0.249671       0.708326
                 7  H                4.647970       3.750256      -1.926160
                 8  O                8.522985      -2.939601      -7.958883
                 9  H                7.915684      -1.508058      -7.020373
                10  H                7.863622      -2.652344      -9.631102
                11  O                5.916392       0.881425      -9.768107
                12  H                6.652308       1.565260     -11.285217
                13  H                6.239441       2.166117      -8.517505

 MOPAC ONE- AND TWO-ELECTRON INTEGRALS REQUIRE      2933 WORDS.
 ...... END OF ONE- AND TWO-ELECTRON INTEGRALS......
 STEP CPU TIME =     0.00 TOTAL CPU TIME =          7.8 (      0.1 MIN)
 TOTAL WALL CLOCK TIME=          7.8 SECONDS, CPU UTILIZATION IS   100.00%
 ...... END OF ONE-ELECTRON INTEGRALS ......
 STEP CPU TIME =     0.00 TOTAL CPU TIME =          7.8 (      0.1 MIN)
 TOTAL WALL CLOCK TIME=          7.8 SECONDS, CPU UTILIZATION IS   100.00%

     ----------------------------
     INPUT FOR TESSERA DEFINITION
     ----------------------------
     NTSALL  =        60     MTHALL  =         4
     MTHAUT  =         0     AUTFRE  =    2.0000
     NTSFRZ  =        60     KEEPSM  =         0
     AREAKP  =   10.0000     BONDRY  =    1.0000
     AREATL  =    0.0100

     SPHERE     INITS       METHOD
          1        60       FIXPVA
          2        60       FIXPVA
          3        60       FIXPVA
          4        60       FIXPVA
          5        60       FIXPVA
          6        60       FIXPVA
          7        60       FIXPVA
          8        60       FIXPVA
          9        60       FIXPVA
         10        60       FIXPVA
         11        60       FIXPVA
         12        60       FIXPVA
         13        60       FIXPVA

     ------------------------------
      FIXPVA TESSELLATION FOR PCM
         PEIFENG SU AND HUI LI
     UNIVERSITY OF NEBRASKA-LINCOLN
     ------------------------------


     INPUT FOR CAVITY DEFINITION 
     ---------------------------
   ATOM               COORDINATES                RADIUS       EPS
      1      1.5244      0.2758      0.9322      1.8100     78.3900
      2      2.8090     -0.0679     -0.2077      1.7000     78.3900
      3      2.9288      1.0023     -1.2505      1.7000     78.3900
      4      3.5353      0.8015     -2.3067      1.5000     78.3900
      5      2.5879     -1.0626     -0.6693      1.2000     78.3900
      6      3.7641     -0.1321      0.3748      1.2000     78.3900
      7      2.4596      1.9845     -1.0193      1.2000     78.3900
      8      4.5102     -1.5556     -4.2117      1.5000     78.3900
      9      4.1888     -0.7980     -3.7150      1.2000     78.3900
     10      4.1612     -1.4036     -5.0966      1.2000     78.3900
     11      3.1308      0.4664     -5.1691      1.5000     78.3900
     12      3.5202      0.8283     -5.9719      1.2000     78.3900
     13      3.3018      1.1463     -4.5073      1.2000     78.3900

 MEMORY USED TO GENERATE CAVITY=    262582


 TOTAL NUMBER OF SPHERES=    13
 SPHERE           CENTER  (X,Y,Z) (A)               RADIUS (A)      AREA(A*A)
     1   1.524440000   0.275770000   0.932220000   2.172000000  38.490629521
     2   2.809020000  -0.067940000  -0.207700000   2.040000000   3.657239179
     3   2.928770000   1.002300000  -1.250520000   2.040000000  12.181771764
     4   3.535260000   0.801550000  -2.306700000   1.800000000   8.988413428
     5   2.587890000  -1.062590000  -0.669290000   1.440000000   7.107096152
     6   3.764080000  -0.132120000   0.374830000   1.440000000   8.266216870
     7   2.459600000   1.984550000  -1.019280000   1.440000000   7.030749145
     8   4.510170000  -1.555570000  -4.211660000   1.800000000  20.269621245
     9   4.188800000  -0.798030000  -3.715021772   1.440000000   0.580803594
    10   4.161250000  -1.403560000  -5.096560000   1.440000000   4.865021115
    11   3.130820000   0.466430000  -5.169060000   1.800000000  12.439258795
    12   3.520250000   0.828300000  -5.971880000   1.440000000   9.845721754
    13   3.301770000   1.146260000  -4.507270000   1.440000000   4.778656437

 TOTAL NUMBER OF TESSERAE=     272
 SURFACE AREA=   138.50119900(A**2)    CAVITY VOLUME=    119.39207382 (A**3)
 STEP CPU TIME =     0.00 TOTAL CPU TIME =          7.8 (      0.1 MIN)
 TOTAL WALL CLOCK TIME=          7.8 SECONDS, CPU UTILIZATION IS   100.00%

          THE SOLUTE IS ENCLOSED IN ONE CAVITY
 DONE CHECKING SEPARATION.
 STEP CPU TIME =     0.00 TOTAL CPU TIME =          7.8 (      0.1 MIN)
 TOTAL WALL CLOCK TIME=          7.8 SECONDS, CPU UTILIZATION IS   100.00%
 
 ..... DONE SETTING UP PCM CALCULATION .....
 STEP CPU TIME =     0.00 TOTAL CPU TIME =          7.8 (      0.1 MIN)
 TOTAL WALL CLOCK TIME=          7.8 SECONDS, CPU UTILIZATION IS   100.00%

          --------------------------
               R-AM1 SCF CALCULATION
          --------------------------
     DENSITY MATRIX CONV=  1.00E-05

 ITER EX DEM     TOTAL ENERGY        E CHANGE  DENSITY CHANGE    DIIS ERROR
   1  0  0      -62.0866083370   -62.0866083370   0.001230987   0.000000000
   2  1  0      -62.0866116103    -0.0000032734   0.000516074   0.000000000
   3  2  0      -62.0866120608    -0.0000004504   0.000224749   0.000000000
   4  3  0      -62.0866121450    -0.0000000843   0.000100224   0.000000000
   5  4  0      -62.0866121629    -0.0000000179   0.000048152   0.000000000
   6  5  0      -62.0866121670    -0.0000000041   0.000024639   0.000000000
   7  6  0      -62.0866121680    -0.0000000010   0.000012749   0.000000000
   8  7  0      -62.0866121683    -0.0000000002   0.000006663   0.000000000
   9  8  0      -62.0866121683    -0.0000000000   0.000003513   0.000000000

          -----------------
          DENSITY CONVERGED
          -----------------
     TIME TO FORM FOCK OPERATORS=       0.1 SECONDS (       0.0 SEC/ITER)
     TIME TO SOLVE SCF EQUATIONS=       0.0 SECONDS (       0.0 SEC/ITER)

 FINAL R-AM1 ENERGY IS      -62.0866121683 AFTER   9 ITERATIONS

 HEAT OF FORMATION IS      -182.98279 KCAL/MOL
 
  
   PCM ASC=      0.0394072726
   GCAVP  =      0.0000000000
   GDISP  =      0.0000000000
   GREP   =      0.0000000000
 ...... END OF RHF CALCULATION ......
 STEP CPU TIME =     0.11 TOTAL CPU TIME =          7.9 (      0.1 MIN)
 TOTAL WALL CLOCK TIME=          7.9 SECONDS, CPU UTILIZATION IS   100.00%
 
 .... DONE WITH PCM CONTRIBUTION TO GRADIENT ....
 STEP CPU TIME =     0.02 TOTAL CPU TIME =          7.9 (      0.1 MIN)
 TOTAL WALL CLOCK TIME=          7.9 SECONDS, CPU UTILIZATION IS   100.00%
 STEP CPU TIME =     0.00 TOTAL CPU TIME =          7.9 (      0.1 MIN)
 TOTAL WALL CLOCK TIME=          7.9 SECONDS, CPU UTILIZATION IS   100.00%

 UNITS ARE HARTREE/BOHR    E'X               E'Y               E'Z 
    1 CL              -0.000037665      -0.000028108       0.000006880
    2 C               -0.000052776      -0.000030890       0.000057590
    3 C               -0.000085063       0.000070413       0.000063345
    4 O                0.000084972       0.000026879      -0.000137489
    5 H               -0.000011092      -0.000071916      -0.000030962
    6 H                0.000033792      -0.000006757       0.000036444
    7 H               -0.000024868       0.000014041       0.000004855
    8 O               -0.000341884       0.001250367       0.001390200
    9 H                0.000543848      -0.001674767      -0.001809564
   10 H               -0.000143319       0.000490807       0.000387256
   11 O               -0.000116197      -0.000279101       0.000364612
   12 H                0.000128320       0.000182537      -0.000384547
   13 H                0.000021932       0.000056495       0.000051380
  $VIB   
          IVIB=   2 IATOM=   9 ICOORD=   3 E=      -62.0866121683
 -3.766504283E-05-2.810843693E-05 6.880147659E-06-5.277645579E-05-3.089016856E-05
  5.759012783E-05-8.506322515E-05 7.041287193E-05 6.334524527E-05 8.497228713E-05
  2.687938394E-05-1.374894079E-04-1.109191291E-05-7.191598447E-05-3.096231067E-05
  3.379219475E-05-6.757384500E-06 3.644406881E-05-2.486786676E-05 1.404127399E-05
  4.855271463E-06-3.418842255E-04 1.250367295E-03 1.390200479E-03 5.438477285E-04
 -1.674767417E-03-1.809564499E-03-1.433192588E-04 4.908073286E-04 3.872562408E-04
 -1.161967038E-04-2.791006373E-04 3.646116139E-04 1.283204623E-04 1.825373197E-04
 -3.845473380E-04 2.193201884E-05 5.649455576E-05 5.138036094E-05
 -3.560699514E-01 3.419571796E+00 7.101896820E-01
1   ATOM 10
                                        -------------------
   COORD  1                             NUCLEAR COORDINATES
                                        -------------------
     VIB  2

                       ATOM             X              Y              Z

                 1  CL               2.880774       0.521130       1.761640
                 2  C                5.308278      -0.128388      -0.392496
                 3  C                5.534573       1.894072      -2.363140
                 4  O                6.680673       1.514710      -4.359031
                 5  H                4.890403      -2.008004      -1.264775
                 6  H                7.113080      -0.249671       0.708326
                 7  H                4.647970       3.750256      -1.926160
                 8  O                8.522985      -2.939601      -7.958883
                 9  H                7.915684      -1.508058      -7.010373
                10  H                7.853622      -2.652344      -9.631102
                11  O                5.916392       0.881425      -9.768107
                12  H                6.652308       1.565260     -11.285217
                13  H                6.239441       2.166117      -8.517505

 MOPAC ONE- AND TWO-ELECTRON INTEGRALS REQUIRE      2933 WORDS.
 ...... END OF ONE- AND TWO-ELECTRON INTEGRALS......
 STEP CPU TIME =     0.00 TOTAL CPU TIME =          7.9 (      0.1 MIN)
 TOTAL WALL CLOCK TIME=          7.9 SECONDS, CPU UTILIZATION IS   100.00%
 ...... END OF ONE-ELECTRON INTEGRALS ......
 STEP CPU TIME =     0.00 TOTAL CPU TIME =          7.9 (      0.1 MIN)
 TOTAL WALL CLOCK TIME=          7.9 SECONDS, CPU UTILIZATION IS   100.00%

     ----------------------------
     INPUT FOR TESSERA DEFINITION
     ----------------------------
     NTSALL  =        60     MTHALL  =         4
     MTHAUT  =         0     AUTFRE  =    2.0000
     NTSFRZ  =        60     KEEPSM  =         0
     AREAKP  =   10.0000     BONDRY  =    1.0000
     AREATL  =    0.0100

     SPHERE     INITS       METHOD
          1        60       FIXPVA
          2        60       FIXPVA
          3        60       FIXPVA
          4        60       FIXPVA
          5        60       FIXPVA
          6        60       FIXPVA
          7        60       FIXPVA
          8        60       FIXPVA
          9        60       FIXPVA
         10        60       FIXPVA
         11        60       FIXPVA
         12        60       FIXPVA
         13        60       FIXPVA

     ------------------------------
      FIXPVA TESSELLATION FOR PCM
         PEIFENG SU AND HUI LI
     UNIVERSITY OF NEBRASKA-LINCOLN
     ------------------------------


     INPUT FOR CAVITY DEFINITION 
     ---------------------------
   ATOM               COORDINATES                RADIUS       EPS
      1      1.5244      0.2758      0.9322      1.8100     78.3900
      2      2.8090     -0.0679     -0.2077      1.7000     78.3900
      3      2.9288      1.0023     -1.2505      1.7000     78.3900
      4      3.5353      0.8015     -2.3067      1.5000     78.3900
      5      2.5879     -1.0626     -0.6693      1.2000     78.3900
      6      3.7641     -0.1321      0.3748      1.2000     78.3900
      7      2.4596      1.9845     -1.0193      1.2000     78.3900
      8      4.5102     -1.5556     -4.2117      1.5000     78.3900
      9      4.1888     -0.7980     -3.7097      1.2000     78.3900
     10      4.1560     -1.4036     -5.0966      1.2000     78.3900
     11      3.1308      0.4664     -5.1691      1.5000     78.3900
     12      3.5202      0.8283     -5.9719      1.2000     78.3900
     13      3.3018      1.1463     -4.5073      1.2000     78.3900

 MEMORY USED TO GENERATE CAVITY=    262582


 TOTAL NUMBER OF SPHERES=    13
 SPHERE           CENTER  (X,Y,Z) (A)               RADIUS (A)      AREA(A*A)
     1   1.524440000   0.275770000   0.932220000   2.172000000  38.490629521
     2   2.809020000  -0.067940000  -0.207700000   2.040000000   3.657223925
     3   2.928770000   1.002300000  -1.250520000   2.040000000  12.181771764
     4   3.535260000   0.801550000  -2.306700000   1.800000000   8.978195913
     5   2.587890000  -1.062590000  -0.669290000   1.440000000   7.103966586
     6   3.764080000  -0.132120000   0.374830000   1.440000000   8.266216870
     7   2.459600000   1.984550000  -1.019280000   1.440000000   7.030749145
     8   4.510170000  -1.555570000  -4.211660000   1.800000000  20.283601816
     9   4.188800000  -0.798030000  -3.709730000   1.440000000   0.594118074
    10   4.155958228  -1.403560000  -5.096560000   1.440000000   4.858590666
    11   3.130820000   0.466430000  -5.169060000   1.800000000  12.439258795
    12   3.520250000   0.828300000  -5.971880000   1.440000000   9.848760986
    13   3.301770000   1.146260000  -4.507270000   1.440000000   4.778707344

 TOTAL NUMBER OF TESSERAE=     272
 SURFACE AREA=   138.51179140(A**2)    CAVITY VOLUME=    119.39292735 (A**3)
 STEP CPU TIME =     0.00 TOTAL CPU TIME =          7.9 (      0.1 MIN)
 TOTAL WALL CLOCK TIME=          7.9 SECONDS, CPU UTILIZATION IS   100.00%

          THE SOLUTE IS ENCLOSED IN ONE CAVITY
 DONE CHECKING SEPARATION.
 STEP CPU TIME =     0.00 TOTAL CPU TIME =          7.9 (      0.1 MIN)
 TOTAL WALL CLOCK TIME=          7.9 SECONDS, CPU UTILIZATION IS   100.00%
 
 ..... DONE SETTING UP PCM CALCULATION .....
 STEP CPU TIME =     0.00 TOTAL CPU TIME =          7.9 (      0.1 MIN)
 TOTAL WALL CLOCK TIME=          7.9 SECONDS, CPU UTILIZATION IS   100.00%

          --------------------------
               R-AM1 SCF CALCULATION
          --------------------------
     DENSITY MATRIX CONV=  1.00E-05

 ITER EX DEM     TOTAL ENERGY        E CHANGE  DENSITY CHANGE    DIIS ERROR
   1  0  0      -62.0866121258   -62.0866121258   0.001966973   0.000000000
   2  1  0      -62.0866165378    -0.0000044120   0.001027731   0.000000000
   3  2  0      -62.0866176519    -0.0000011141   0.000544075   0.000000000
   4  3  0      -62.0866179635    -0.0000003116   0.000290451   0.000000000
   5  4  0      -62.0866180537    -0.0000000901   0.000155986   0.000000000
   6  5  0      -62.0866180803    -0.0000000266   0.000084159   0.000000000
   7  6  0      -62.0866180881    -0.0000000078   0.000045574   0.000000000
   8  7  0      -62.0866180905    -0.0000000024   0.000024754   0.000000000
   9  8  0      -62.0866180912    -0.0000000007   0.000013479   0.000000000
  10  9  0      -62.0866180914    -0.0000000002   0.000007355   0.000000000

          -----------------
          DENSITY CONVERGED
          -----------------
     TIME TO FORM FOCK OPERATORS=       0.1 SECONDS (       0.0 SEC/ITER)
     TIME TO SOLVE SCF EQUATIONS=       0.0 SECONDS (       0.0 SEC/ITER)

 FINAL R-AM1 ENERGY IS      -62.0866180914 AFTER  10 ITERATIONS

 HEAT OF FORMATION IS      -182.98651 KCAL/MOL
 
  
   PCM ASC=      0.0394069175
   GCAVP  =      0.0000000000
   GDISP  =      0.0000000000
   GREP   =      0.0000000000
 ...... END OF RHF CALCULATION ......
 STEP CPU TIME =     0.10 TOTAL CPU TIME =          8.0 (      0.1 MIN)
 TOTAL WALL CLOCK TIME=          8.0 SECONDS, CPU UTILIZATION IS   100.00%
 
 .... DONE WITH PCM CONTRIBUTION TO GRADIENT ....
 STEP CPU TIME =     0.00 TOTAL CPU TIME =          8.0 (      0.1 MIN)
 TOTAL WALL CLOCK TIME=          8.0 SECONDS, CPU UTILIZATION IS   100.00%
 STEP CPU TIME =     0.00 TOTAL CPU TIME =          8.0 (      0.1 MIN)
 TOTAL WALL CLOCK TIME=          8.0 SECONDS, CPU UTILIZATION IS   100.00%

 UNITS ARE HARTREE/BOHR    E'X               E'Y               E'Z 
    1 CL              -0.000038266      -0.000028152       0.000007424
    2 C               -0.000051034      -0.000031318       0.000057943
    3 C               -0.000080197       0.000073742       0.000050993
    4 O                0.000084771       0.000005886      -0.000154562
    5 H               -0.000011809      -0.000070777      -0.000029701
    6 H                0.000033031      -0.000006811       0.000036444
    7 H               -0.000026366       0.000012955       0.000006297
    8 O                0.000793237      -0.000483513       0.001526032
    9 H               -0.000088357       0.000097340      -0.000159816
   10 H               -0.000647139       0.000463106      -0.001343738
   11 O               -0.000105641      -0.000288372       0.000340343
   12 H                0.000126296       0.000182893      -0.000385576
   13 H                0.000011474       0.000073021       0.000047918
  $VIB   
          IVIB=   2 IATOM=  10 ICOORD=   1 E=      -62.0866180914
 -3.826639253E-05-2.815167194E-05 7.424072375E-06-5.103356790E-05-3.131841206E-05
  5.794342935E-05-8.019676709E-05 7.374213130E-05 5.099264214E-05 8.477088052E-05
  5.886207207E-06-1.545616689E-04-1.180910398E-05-7.077664536E-05-2.970059292E-05
  3.303107439E-05-6.811386167E-06 3.644355492E-05-2.636619857E-05 1.295487474E-05
  6.296663093E-06 7.932366317E-04-4.835134960E-04 1.526031549E-03-8.835650768E-05
  9.733986099E-05-1.598162075E-04-6.471392564E-04 4.631061422E-04-1.343738464E-03
 -1.056413160E-04-2.883717924E-04 3.403428263E-04 1.262963219E-04 1.828933686E-04
 -3.855757599E-04 1.147420159E-05 7.302081884E-05 4.791795568E-05
 -3.633066402E-01 3.417062273E+00 7.192718050E-01
1   ATOM 10
                                        -------------------
   COORD  2                             NUCLEAR COORDINATES
                                        -------------------
     VIB  2

                       ATOM             X              Y              Z

                 1  CL               2.880774       0.521130       1.761640
                 2  C                5.308278      -0.128388      -0.392496
                 3  C                5.534573       1.894072      -2.363140
                 4  O                6.680673       1.514710      -4.359031
                 5  H                4.890403      -2.008004      -1.264775
                 6  H                7.113080      -0.249671       0.708326
                 7  H                4.647970       3.750256      -1.926160
                 8  O                8.522985      -2.939601      -7.958883
                 9  H                7.915684      -1.508058      -7.010373
                10  H                7.863622      -2.662344      -9.631102
                11  O                5.916392       0.881425      -9.768107
                12  H                6.652308       1.565260     -11.285217
                13  H                6.239441       2.166117      -8.517505

 MOPAC ONE- AND TWO-ELECTRON INTEGRALS REQUIRE      2933 WORDS.
 ...... END OF ONE- AND TWO-ELECTRON INTEGRALS......
 STEP CPU TIME =     0.00 TOTAL CPU TIME =          8.0 (      0.1 MIN)
 TOTAL WALL CLOCK TIME=          8.0 SECONDS, CPU UTILIZATION IS   100.00%
 ...... END OF ONE-ELECTRON INTEGRALS ......
 STEP CPU TIME =     0.00 TOTAL CPU TIME =          8.0 (      0.1 MIN)
 TOTAL WALL CLOCK TIME=          8.0 SECONDS, CPU UTILIZATION IS   100.00%

     ----------------------------
     INPUT FOR TESSERA DEFINITION
     ----------------------------
     NTSALL  =        60     MTHALL  =         4
     MTHAUT  =         0     AUTFRE  =    2.0000
     NTSFRZ  =        60     KEEPSM  =         0
     AREAKP  =   10.0000     BONDRY  =    1.0000
     AREATL  =    0.0100

     SPHERE     INITS       METHOD
          1        60       FIXPVA
          2        60       FIXPVA
          3        60       FIXPVA
          4        60       FIXPVA
          5        60       FIXPVA
          6        60       FIXPVA
          7        60       FIXPVA
          8        60       FIXPVA
          9        60       FIXPVA
         10        60       FIXPVA
         11        60       FIXPVA
         12        60       FIXPVA
         13        60       FIXPVA

     ------------------------------
      FIXPVA TESSELLATION FOR PCM
         PEIFENG SU AND HUI LI
     UNIVERSITY OF NEBRASKA-LINCOLN
     ------------------------------


     INPUT FOR CAVITY DEFINITION 
     ---------------------------
   ATOM               COORDINATES                RADIUS       EPS
      1      1.5244      0.2758      0.9322      1.8100     78.3900
      2      2.8090     -0.0679     -0.2077      1.7000     78.3900
      3      2.9288      1.0023     -1.2505      1.7000     78.3900
      4      3.5353      0.8015     -2.3067      1.5000     78.3900
      5      2.5879     -1.0626     -0.6693      1.2000     78.3900
      6      3.7641     -0.1321      0.3748      1.2000     78.3900
      7      2.4596      1.9845     -1.0193      1.2000     78.3900
      8      4.5102     -1.5556     -4.2117      1.5000     78.3900
      9      4.1888     -0.7980     -3.7097      1.2000     78.3900
     10      4.1612     -1.4089     -5.0966      1.2000     78.3900
     11      3.1308      0.4664     -5.1691      1.5000     78.3900
     12      3.5202      0.8283     -5.9719      1.2000     78.3900
     13      3.3018      1.1463     -4.5073      1.2000     78.3900

 MEMORY USED TO GENERATE CAVITY=    262582


 TOTAL NUMBER OF SPHERES=    13
 SPHERE           CENTER  (X,Y,Z) (A)               RADIUS (A)      AREA(A*A)
     1   1.524440000   0.275770000   0.932220000   2.172000000  38.490629521
     2   2.809020000  -0.067940000  -0.207700000   2.040000000   3.657223925
     3   2.928770000   1.002300000  -1.250520000   2.040000000  12.181771764
     4   3.535260000   0.801550000  -2.306700000   1.800000000   8.978195913
     5   2.587890000  -1.062590000  -0.669290000   1.440000000   7.103966586
     6   3.764080000  -0.132120000   0.374830000   1.440000000   8.266216870
     7   2.459600000   1.984550000  -1.019280000   1.440000000   7.030749145
     8   4.510170000  -1.555570000  -4.211660000   1.800000000  20.276430336
     9   4.188800000  -0.798030000  -3.709730000   1.440000000   0.594210120
    10   4.161250000  -1.408851772  -5.096560000   1.440000000   4.895356968
    11   3.130820000   0.466430000  -5.169060000   1.800000000  12.439258795
    12   3.520250000   0.828300000  -5.971880000   1.440000000   9.847820403
    13   3.301770000   1.146260000  -4.507270000   1.440000000   4.778707361

 TOTAL NUMBER OF TESSERAE=     272
 SURFACE AREA=   138.54053771(A**2)    CAVITY VOLUME=    119.45156882 (A**3)
 STEP CPU TIME =     0.00 TOTAL CPU TIME =          8.0 (      0.1 MIN)
 TOTAL WALL CLOCK TIME=          8.0 SECONDS, CPU UTILIZATION IS   100.00%

          THE SOLUTE IS ENCLOSED IN ONE CAVITY
 DONE CHECKING SEPARATION.
 STEP CPU TIME =     0.00 TOTAL CPU TIME =          8.0 (      0.1 MIN)
 TOTAL WALL CLOCK TIME=          8.0 SECONDS, CPU UTILIZATION IS   100.00%
 
 ..... DONE SETTING UP PCM CALCULATION .....
 STEP CPU TIME =     0.00 TOTAL CPU TIME =          8.0 (      0.1 MIN)
 TOTAL WALL CLOCK TIME=          8.0 SECONDS, CPU UTILIZATION IS   100.00%

          --------------------------
               R-AM1 SCF CALCULATION
          --------------------------
     DENSITY MATRIX CONV=  1.00E-05

 ITER EX DEM     TOTAL ENERGY        E CHANGE  DENSITY CHANGE    DIIS ERROR
   1  0  0      -62.0866131319   -62.0866131319   0.001861537   0.000000000
   2  1  0      -62.0866172096    -0.0000040777   0.000872547   0.000000000
   3  2  0      -62.0866180692    -0.0000008596   0.000415581   0.000000000
   4  3  0      -62.0866182686    -0.0000001994   0.000200989   0.000000000
   5  4  0      -62.0866183181    -0.0000000496   0.000098654   0.000000000
   6  5  0      -62.0866183311    -0.0000000130   0.000049116   0.000000000
   7  6  0      -62.0866183347    -0.0000000036   0.000024783   0.000000000
   8  7  0      -62.0866183357    -0.0000000010   0.000012662   0.000000000
   9  8  0      -62.0866183360    -0.0000000003   0.000007140   0.000000000
  10  9  0      -62.0866183361    -0.0000000001   0.000004015   0.000000000

          -----------------
          DENSITY CONVERGED
          -----------------
     TIME TO FORM FOCK OPERATORS=       0.1 SECONDS (       0.0 SEC/ITER)
     TIME TO SOLVE SCF EQUATIONS=       0.0 SECONDS (       0.0 SEC/ITER)

 FINAL R-AM1 ENERGY IS      -62.0866183361 AFTER  10 ITERATIONS

 HEAT OF FORMATION IS      -182.98666 KCAL/MOL
 
  
   PCM ASC=      0.0394008330
   GCAVP  =      0.0000000000
   GDISP  =      0.0000000000
   GREP   =      0.0000000000
 ...... END OF RHF CALCULATION ......
 STEP CPU TIME =     0.12 TOTAL CPU TIME =          8.1 (      0.1 MIN)
 TOTAL WALL CLOCK TIME=          8.1 SECONDS, CPU UTILIZATION IS   100.00%
 
 .... DONE WITH PCM CONTRIBUTION TO GRADIENT ....
 STEP CPU TIME =     0.01 TOTAL CPU TIME =          8.1 (      0.1 MIN)
 TOTAL WALL CLOCK TIME=          8.1 SECONDS, CPU UTILIZATION IS   100.00%
 STEP CPU TIME =     0.00 TOTAL CPU TIME =          8.1 (      0.1 MIN)
 TOTAL WALL CLOCK TIME=          8.1 SECONDS, CPU UTILIZATION IS   100.00%

 UNITS ARE HARTREE/BOHR    E'X               E'Y               E'Z 
    1 CL              -0.000038250      -0.000028136       0.000007417
    2 C               -0.000050837      -0.000031304       0.000057939
    3 C               -0.000080415       0.000074419       0.000051018
    4 O                0.000083863       0.000006591      -0.000154552
    5 H               -0.000011780      -0.000070813      -0.000029789
    6 H                0.000033014      -0.000006821       0.000036451
    7 H               -0.000026520       0.000012953       0.000006351
    8 O               -0.000569435       0.000619219      -0.000775334
    9 H                0.000217917      -0.000087225       0.000488692
   10 H                0.000478686      -0.000575278       0.000329435
   11 O               -0.000170908      -0.000176316       0.000321222
   12 H                0.000121451       0.000193003      -0.000396996
   13 H                0.000013214       0.000069709       0.000058147
  $VIB   
          IVIB=   2 IATOM=  10 ICOORD=   2 E=      -62.0866183361
 -3.824956844E-05-2.813607545E-05 7.417070721E-06-5.083671560E-05-3.130429059E-05
  5.793939462E-05-8.041468631E-05 7.441880786E-05 5.101750430E-05 8.386299400E-05
  6.591402590E-06-1.545521683E-04-1.178010244E-05-7.081338581E-05-2.978927235E-05
  3.301358154E-05-6.820987552E-06 3.645082543E-05-2.651954769E-05 1.295277293E-05
  6.351127455E-06-5.694353489E-04 6.192189555E-04-7.753344781E-04 2.179168083E-04
 -8.722536111E-05 4.886919664E-04 4.786857270E-04-5.752782808E-04 3.294348156E-04
 -1.709081785E-04-1.763155130E-04 3.212223274E-04 1.214512651E-04 1.930025667E-04
 -3.969956807E-04 1.321377190E-05 6.970938869E-05 5.814656753E-05
 -3.576314607E-01 3.411302953E+00 7.148078627E-01
1   ATOM 10
                                        -------------------
   COORD  3                             NUCLEAR COORDINATES
                                        -------------------
     VIB  2

                       ATOM             X              Y              Z

                 1  CL               2.880774       0.521130       1.761640
                 2  C                5.308278      -0.128388      -0.392496
                 3  C                5.534573       1.894072      -2.363140
                 4  O                6.680673       1.514710      -4.359031
                 5  H                4.890403      -2.008004      -1.264775
                 6  H                7.113080      -0.249671       0.708326
                 7  H                4.647970       3.750256      -1.926160
                 8  O                8.522985      -2.939601      -7.958883
                 9  H                7.915684      -1.508058      -7.010373
                10  H                7.863622      -2.652344      -9.641102
                11  O                5.916392       0.881425      -9.768107
                12  H                6.652308       1.565260     -11.285217
                13  H                6.239441       2.166117      -8.517505

 MOPAC ONE- AND TWO-ELECTRON INTEGRALS REQUIRE      2933 WORDS.
 ...... END OF ONE- AND TWO-ELECTRON INTEGRALS......
 STEP CPU TIME =     0.00 TOTAL CPU TIME =          8.1 (      0.1 MIN)
 TOTAL WALL CLOCK TIME=          8.1 SECONDS, CPU UTILIZATION IS   100.00%
 ...... END OF ONE-ELECTRON INTEGRALS ......
 STEP CPU TIME =     0.00 TOTAL CPU TIME =          8.1 (      0.1 MIN)
 TOTAL WALL CLOCK TIME=          8.1 SECONDS, CPU UTILIZATION IS   100.00%

     ----------------------------
     INPUT FOR TESSERA DEFINITION
     ----------------------------
     NTSALL  =        60     MTHALL  =         4
     MTHAUT  =         0     AUTFRE  =    2.0000
     NTSFRZ  =        60     KEEPSM  =         0
     AREAKP  =   10.0000     BONDRY  =    1.0000
     AREATL  =    0.0100

     SPHERE     INITS       METHOD
          1        60       FIXPVA
          2        60       FIXPVA
          3        60       FIXPVA
          4        60       FIXPVA
          5        60       FIXPVA
          6        60       FIXPVA
          7        60       FIXPVA
          8        60       FIXPVA
          9        60       FIXPVA
         10        60       FIXPVA
         11        60       FIXPVA
         12        60       FIXPVA
         13        60       FIXPVA

     ------------------------------
      FIXPVA TESSELLATION FOR PCM
         PEIFENG SU AND HUI LI
     UNIVERSITY OF NEBRASKA-LINCOLN
     ------------------------------


     INPUT FOR CAVITY DEFINITION 
     ---------------------------
   ATOM               COORDINATES                RADIUS       EPS
      1      1.5244      0.2758      0.9322      1.8100     78.3900
      2      2.8090     -0.0679     -0.2077      1.7000     78.3900
      3      2.9288      1.0023     -1.2505      1.7000     78.3900
      4      3.5353      0.8015     -2.3067      1.5000     78.3900
      5      2.5879     -1.0626     -0.6693      1.2000     78.3900
      6      3.7641     -0.1321      0.3748      1.2000     78.3900
      7      2.4596      1.9845     -1.0193      1.2000     78.3900
      8      4.5102     -1.5556     -4.2117      1.5000     78.3900
      9      4.1888     -0.7980     -3.7097      1.2000     78.3900
     10      4.1612     -1.4036     -5.1019      1.2000     78.3900
     11      3.1308      0.4664     -5.1691      1.5000     78.3900
     12      3.5202      0.8283     -5.9719      1.2000     78.3900
     13      3.3018      1.1463     -4.5073      1.2000     78.3900

 MEMORY USED TO GENERATE CAVITY=    262582


 TOTAL NUMBER OF SPHERES=    13
 SPHERE           CENTER  (X,Y,Z) (A)               RADIUS (A)      AREA(A*A)
     1   1.524440000   0.275770000   0.932220000   2.172000000  38.490629521
     2   2.809020000  -0.067940000  -0.207700000   2.040000000   3.657223925
     3   2.928770000   1.002300000  -1.250520000   2.040000000  12.181771764
     4   3.535260000   0.801550000  -2.306700000   1.800000000   8.978195913
     5   2.587890000  -1.062590000  -0.669290000   1.440000000   7.103966586
     6   3.764080000  -0.132120000   0.374830000   1.440000000   8.266216870
     7   2.459600000   1.984550000  -1.019280000   1.440000000   7.030749145
     8   4.510170000  -1.555570000  -4.211660000   1.800000000  20.263436920
     9   4.188800000  -0.798030000  -3.709730000   1.440000000   0.594287028
    10   4.161250000  -1.403560000  -5.101851772   1.440000000   4.923431067
    11   3.130820000   0.466430000  -5.169060000   1.800000000  12.439258795
    12   3.520250000   0.828300000  -5.971880000   1.440000000   9.841415030
    13   3.301770000   1.146260000  -4.507270000   1.440000000   4.778707342

 TOTAL NUMBER OF TESSERAE=     272
 SURFACE AREA=   138.54928991(A**2)    CAVITY VOLUME=    119.48521976 (A**3)
 STEP CPU TIME =     0.01 TOTAL CPU TIME =          8.1 (      0.1 MIN)
 TOTAL WALL CLOCK TIME=          8.1 SECONDS, CPU UTILIZATION IS   100.00%

          THE SOLUTE IS ENCLOSED IN ONE CAVITY
 DONE CHECKING SEPARATION.
 STEP CPU TIME =     0.00 TOTAL CPU TIME =          8.1 (      0.1 MIN)
 TOTAL WALL CLOCK TIME=          8.1 SECONDS, CPU UTILIZATION IS   100.00%
 
 ..... DONE SETTING UP PCM CALCULATION .....
 STEP CPU TIME =     0.00 TOTAL CPU TIME =          8.1 (      0.1 MIN)
 TOTAL WALL CLOCK TIME=          8.1 SECONDS, CPU UTILIZATION IS   100.00%

          --------------------------
               R-AM1 SCF CALCULATION
          --------------------------
     DENSITY MATRIX CONV=  1.00E-05

 ITER EX DEM     TOTAL ENERGY        E CHANGE  DENSITY CHANGE    DIIS ERROR
   1  0  0      -62.0865982667   -62.0865982667   0.001190453   0.000000000
   2  1  0      -62.0866014412    -0.0000031745   0.000285123   0.000000000
   3  2  0      -62.0866016590    -0.0000002178   0.000155058   0.000000000
   4  3  0      -62.0866016923    -0.0000000334   0.000083358   0.000000000
   5  4  0      -62.0866017005    -0.0000000081   0.000044816   0.000000000
   6  5  0      -62.0866017028    -0.0000000024   0.000024177   0.000000000
   7  6  0      -62.0866017035    -0.0000000007   0.000013095   0.000000000
   8  7  0      -62.0866017037    -0.0000000002   0.000007118   0.000000000

          -----------------
          DENSITY CONVERGED
          -----------------
     TIME TO FORM FOCK OPERATORS=       0.1 SECONDS (       0.0 SEC/ITER)
     TIME TO SOLVE SCF EQUATIONS=       0.0 SECONDS (       0.0 SEC/ITER)

 FINAL R-AM1 ENERGY IS      -62.0866017037 AFTER   8 ITERATIONS

 HEAT OF FORMATION IS      -182.97622 KCAL/MOL
 
  
   PCM ASC=      0.0393992857
   GCAVP  =      0.0000000000
   GDISP  =      0.0000000000
   GREP   =      0.0000000000
 ...... END OF RHF CALCULATION ......
 STEP CPU TIME =     0.08 TOTAL CPU TIME =          8.2 (      0.1 MIN)
 TOTAL WALL CLOCK TIME=          8.2 SECONDS, CPU UTILIZATION IS   100.00%
 
 .... DONE WITH PCM CONTRIBUTION TO GRADIENT ....
 STEP CPU TIME =     0.00 TOTAL CPU TIME =          8.2 (      0.1 MIN)
 TOTAL WALL CLOCK TIME=          8.2 SECONDS, CPU UTILIZATION IS   100.00%
 STEP CPU TIME =     0.00 TOTAL CPU TIME =          8.2 (      0.1 MIN)
 TOTAL WALL CLOCK TIME=          8.2 SECONDS, CPU UTILIZATION IS   100.00%

 UNITS ARE HARTREE/BOHR    E'X               E'Y               E'Z 
    1 CL              -0.000038142      -0.000028085       0.000007336
    2 C               -0.000051186      -0.000031212       0.000057756
    3 C               -0.000081367       0.000074145       0.000053567
    4 O                0.000085248       0.000003113      -0.000158735
    5 H               -0.000011760      -0.000071116      -0.000029953
    6 H                0.000033188      -0.000006788       0.000036452
    7 H               -0.000026159       0.000013181       0.000006091
    8 O                0.001272234      -0.000400128       0.003485996
    9 H                0.000101022       0.000077292       0.000405798
   10 H               -0.001280982       0.000350977      -0.003868303
   11 O               -0.000139101      -0.000234385       0.000341569
   12 H                0.000127644       0.000178007      -0.000386157
   13 H                0.000009362       0.000074999       0.000048583
  $VIB   
          IVIB=   2 IATOM=  10 ICOORD=   3 E=      -62.0866017037
 -3.814236840E-05-2.808549750E-05 7.335632235E-06-5.118644332E-05-3.121184636E-05
  5.775605125E-05-8.136721186E-05 7.414468246E-05 5.356724348E-05 8.524791130E-05
  3.113136277E-06-1.587347815E-04-1.176041471E-05-7.111559037E-05-2.995275092E-05
  3.318842710E-05-6.788388693E-06 3.645188016E-05-2.615892049E-05 1.318146130E-05
  6.091351920E-06 1.272233977E-03-4.001276295E-04 3.485996415E-03 1.010220796E-04
  7.729226125E-05 4.057978046E-04-1.280982366E-03 3.509766695E-04-3.868302596E-03
 -1.391006420E-04-2.343847728E-04 3.415685719E-04 1.276441849E-04 1.780066250E-04
 -3.861573658E-04 9.361786457E-06 7.499888955E-05 4.858254339E-05
 -3.541452928E-01 3.417897055E+00 7.132583354E-01
1   ATOM 11
                                        -------------------
   COORD  1                             NUCLEAR COORDINATES
                                        -------------------
     VIB  2

                       ATOM             X              Y              Z

                 1  CL               2.880774       0.521130       1.761640
                 2  C                5.308278      -0.128388      -0.392496
                 3  C                5.534573       1.894072      -2.363140
                 4  O                6.680673       1.514710      -4.359031
                 5  H                4.890403      -2.008004      -1.264775
                 6  H                7.113080      -0.249671       0.708326
                 7  H                4.647970       3.750256      -1.926160
                 8  O                8.522985      -2.939601      -7.958883
                 9  H                7.915684      -1.508058      -7.010373
                10  H                7.863622      -2.652344      -9.631102
                11  O                5.906392       0.881425      -9.768107
                12  H                6.652308       1.565260     -11.285217
                13  H                6.239441       2.166117      -8.517505

 MOPAC ONE- AND TWO-ELECTRON INTEGRALS REQUIRE      2933 WORDS.
 ...... END OF ONE- AND TWO-ELECTRON INTEGRALS......
 STEP CPU TIME =     0.00 TOTAL CPU TIME =          8.2 (      0.1 MIN)
 TOTAL WALL CLOCK TIME=          8.2 SECONDS, CPU UTILIZATION IS   100.00%
 ...... END OF ONE-ELECTRON INTEGRALS ......
 STEP CPU TIME =     0.00 TOTAL CPU TIME =          8.2 (      0.1 MIN)
 TOTAL WALL CLOCK TIME=          8.2 SECONDS, CPU UTILIZATION IS   100.00%

     ----------------------------
     INPUT FOR TESSERA DEFINITION
     ----------------------------
     NTSALL  =        60     MTHALL  =         4
     MTHAUT  =         0     AUTFRE  =    2.0000
     NTSFRZ  =        60     KEEPSM  =         0
     AREAKP  =   10.0000     BONDRY  =    1.0000
     AREATL  =    0.0100

     SPHERE     INITS       METHOD
          1        60       FIXPVA
          2        60       FIXPVA
          3        60       FIXPVA
          4        60       FIXPVA
          5        60       FIXPVA
          6        60       FIXPVA
          7        60       FIXPVA
          8        60       FIXPVA
          9        60       FIXPVA
         10        60       FIXPVA
         11        60       FIXPVA
         12        60       FIXPVA
         13        60       FIXPVA

     ------------------------------
      FIXPVA TESSELLATION FOR PCM
         PEIFENG SU AND HUI LI
     UNIVERSITY OF NEBRASKA-LINCOLN
     ------------------------------


     INPUT FOR CAVITY DEFINITION 
     ---------------------------
   ATOM               COORDINATES                RADIUS       EPS
      1      1.5244      0.2758      0.9322      1.8100     78.3900
      2      2.8090     -0.0679     -0.2077      1.7000     78.3900
      3      2.9288      1.0023     -1.2505      1.7000     78.3900
      4      3.5353      0.8015     -2.3067      1.5000     78.3900
      5      2.5879     -1.0626     -0.6693      1.2000     78.3900
      6      3.7641     -0.1321      0.3748      1.2000     78.3900
      7      2.4596      1.9845     -1.0193      1.2000     78.3900
      8      4.5102     -1.5556     -4.2117      1.5000     78.3900
      9      4.1888     -0.7980     -3.7097      1.2000     78.3900
     10      4.1612     -1.4036     -5.0966      1.2000     78.3900
     11      3.1255      0.4664     -5.1691      1.5000     78.3900
     12      3.5202      0.8283     -5.9719      1.2000     78.3900
     13      3.3018      1.1463     -4.5073      1.2000     78.3900

 MEMORY USED TO GENERATE CAVITY=    262582


 TOTAL NUMBER OF SPHERES=    13
 SPHERE           CENTER  (X,Y,Z) (A)               RADIUS (A)      AREA(A*A)
     1   1.524440000   0.275770000   0.932220000   2.172000000  38.490629521
     2   2.809020000  -0.067940000  -0.207700000   2.040000000   3.657223925
     3   2.928770000   1.002300000  -1.250520000   2.040000000  12.181771764
     4   3.535260000   0.801550000  -2.306700000   1.800000000   8.971154111
     5   2.587890000  -1.062590000  -0.669290000   1.440000000   7.103966586
     6   3.764080000  -0.132120000   0.374830000   1.440000000   8.266216870
     7   2.459600000   1.984550000  -1.019280000   1.440000000   7.030749145
     8   4.510170000  -1.555570000  -4.211660000   1.800000000  20.269614417
     9   4.188800000  -0.798030000  -3.709730000   1.440000000   0.594526217
    10   4.161250000  -1.403560000  -5.096560000   1.440000000   4.864080457
    11   3.125528228   0.466430000  -5.169060000   1.800000000  12.489250152
    12   3.520250000   0.828300000  -5.971880000   1.440000000   9.824962598
    13   3.301770000   1.146260000  -4.507270000   1.440000000   4.762530005

 TOTAL NUMBER OF TESSERAE=     272
 SURFACE AREA=   138.50667577(A**2)    CAVITY VOLUME=    119.40981694 (A**3)
 STEP CPU TIME =     0.00 TOTAL CPU TIME =          8.2 (      0.1 MIN)
 TOTAL WALL CLOCK TIME=          8.2 SECONDS, CPU UTILIZATION IS   100.00%

          THE SOLUTE IS ENCLOSED IN ONE CAVITY
 DONE CHECKING SEPARATION.
 STEP CPU TIME =     0.00 TOTAL CPU TIME =          8.2 (      0.1 MIN)
 TOTAL WALL CLOCK TIME=          8.2 SECONDS, CPU UTILIZATION IS   100.00%
 
 ..... DONE SETTING UP PCM CALCULATION .....
 STEP CPU TIME =     0.00 TOTAL CPU TIME =          8.2 (      0.1 MIN)
 TOTAL WALL CLOCK TIME=          8.2 SECONDS, CPU UTILIZATION IS   100.00%

          --------------------------
               R-AM1 SCF CALCULATION
          --------------------------
     DENSITY MATRIX CONV=  1.00E-05

 ITER EX DEM     TOTAL ENERGY        E CHANGE  DENSITY CHANGE    DIIS ERROR
   1  0  0      -62.0866017679   -62.0866017679   0.002116063   0.000000000
   2  1  0      -62.0866104488    -0.0000086809   0.001139456   0.000000000
   3  2  0      -62.0866128893    -0.0000024405   0.000620220   0.000000000
   4  3  0      -62.0866136229    -0.0000007336   0.000339673   0.000000000
   5  4  0      -62.0866138471    -0.0000002242   0.000186774   0.000000000
   6  5  0      -62.0866139161    -0.0000000690   0.000102999   0.000000000
   7  6  0      -62.0866139374    -0.0000000213   0.000056926   0.000000000
   8  7  0      -62.0866139440    -0.0000000066   0.000031594   0.000000000
   9  8  0      -62.0866139460    -0.0000000021   0.000017612   0.000000000
  10  9  0      -62.0866139467    -0.0000000007   0.000009820   0.000000000
  11 10  0      -62.0866139469    -0.0000000002   0.000005477   0.000000000

          -----------------
          DENSITY CONVERGED
          -----------------
     TIME TO FORM FOCK OPERATORS=       0.1 SECONDS (       0.0 SEC/ITER)
     TIME TO SOLVE SCF EQUATIONS=       0.0 SECONDS (       0.0 SEC/ITER)

 FINAL R-AM1 ENERGY IS      -62.0866139469 AFTER  11 ITERATIONS

 HEAT OF FORMATION IS      -182.98391 KCAL/MOL
 
  
   PCM ASC=      0.0394122793
   GCAVP  =      0.0000000000
   GDISP  =      0.0000000000
   GREP   =      0.0000000000
 ...... END OF RHF CALCULATION ......
 STEP CPU TIME =     0.13 TOTAL CPU TIME =          8.4 (      0.1 MIN)
 TOTAL WALL CLOCK TIME=          8.4 SECONDS, CPU UTILIZATION IS   100.00%
 
 .... DONE WITH PCM CONTRIBUTION TO GRADIENT ....
 STEP CPU TIME =     0.00 TOTAL CPU TIME =          8.4 (      0.1 MIN)
 TOTAL WALL CLOCK TIME=          8.4 SECONDS, CPU UTILIZATION IS   100.00%
 STEP CPU TIME =     0.00 TOTAL CPU TIME =          8.4 (      0.1 MIN)
 TOTAL WALL CLOCK TIME=          8.4 SECONDS, CPU UTILIZATION IS   100.00%

 UNITS ARE HARTREE/BOHR    E'X               E'Y               E'Z 
    1 CL              -0.000038573      -0.000028159       0.000007835
    2 C               -0.000050446      -0.000031463       0.000058224
    3 C               -0.000079122       0.000074367       0.000048189
    4 O                0.000082340       0.000008928      -0.000145992
    5 H               -0.000011965      -0.000070607      -0.000029697
    6 H                0.000032734      -0.000006834       0.000036464
    7 H               -0.000026705       0.000012581       0.000006619
    8 O                0.000033798      -0.000007166       0.000029766
    9 H                0.000042488       0.000006584       0.000032105
   10 H                0.000060494      -0.000022257      -0.000011625
   11 O               -0.001314161      -0.001873214       0.001282944
   12 H                0.000940728       0.001129545      -0.001624817
   13 H                0.000328391       0.000807696       0.000309985
  $VIB   
          IVIB=   2 IATOM=  11 ICOORD=   1 E=      -62.0866139469
 -3.857305473E-05-2.815878031E-05 7.835464924E-06-5.044621366E-05-3.146325068E-05
  5.822414767E-05-7.912180993E-05 7.436655336E-05 4.818878791E-05 8.234004784E-05
  8.928410709E-06-1.459915957E-04-1.196526893E-05-7.060712869E-05-2.969704031E-05
  3.273370064E-05-6.834153956E-06 3.646356892E-05-2.670464027E-05 1.258061525E-05
  6.618644456E-06 3.379825050E-05-7.165805346E-06 2.976618768E-05 4.248757525E-05
  6.584344297E-06 3.210483904E-05 6.049372114E-05-2.225704114E-05-1.162538975E-05
 -1.314161389E-03-1.873214073E-03 1.282944436E-03 9.407284327E-04 1.129544792E-03
 -1.624817149E-03 3.283906487E-04 8.076955172E-04 3.099850979E-04
 -3.404006306E-01 3.414867849E+00 7.182238342E-01
1   ATOM 11
                                        -------------------
   COORD  2                             NUCLEAR COORDINATES
                                        -------------------
     VIB  2

                       ATOM             X              Y              Z

                 1  CL               2.880774       0.521130       1.761640
                 2  C                5.308278      -0.128388      -0.392496
                 3  C                5.534573       1.894072      -2.363140
                 4  O                6.680673       1.514710      -4.359031
                 5  H                4.890403      -2.008004      -1.264775
                 6  H                7.113080      -0.249671       0.708326
                 7  H                4.647970       3.750256      -1.926160
                 8  O                8.522985      -2.939601      -7.958883
                 9  H                7.915684      -1.508058      -7.010373
                10  H                7.863622      -2.652344      -9.631102
                11  O                5.916392       0.871425      -9.768107
                12  H                6.652308       1.565260     -11.285217
                13  H                6.239441       2.166117      -8.517505

 MOPAC ONE- AND TWO-ELECTRON INTEGRALS REQUIRE      2933 WORDS.
 ...... END OF ONE- AND TWO-ELECTRON INTEGRALS......
 STEP CPU TIME =     0.00 TOTAL CPU TIME =          8.4 (      0.1 MIN)
 TOTAL WALL CLOCK TIME=          8.4 SECONDS, CPU UTILIZATION IS   100.00%
 ...... END OF ONE-ELECTRON INTEGRALS ......
 STEP CPU TIME =     0.00 TOTAL CPU TIME =          8.4 (      0.1 MIN)
 TOTAL WALL CLOCK TIME=          8.4 SECONDS, CPU UTILIZATION IS   100.00%

     ----------------------------
     INPUT FOR TESSERA DEFINITION
     ----------------------------
     NTSALL  =        60     MTHALL  =         4
     MTHAUT  =         0     AUTFRE  =    2.0000
     NTSFRZ  =        60     KEEPSM  =         0
     AREAKP  =   10.0000     BONDRY  =    1.0000
     AREATL  =    0.0100

     SPHERE     INITS       METHOD
          1        60       FIXPVA
          2        60       FIXPVA
          3        60       FIXPVA
          4        60       FIXPVA
          5        60       FIXPVA
          6        60       FIXPVA
          7        60       FIXPVA
          8        60       FIXPVA
          9        60       FIXPVA
         10        60       FIXPVA
         11        60       FIXPVA
         12        60       FIXPVA
         13        60       FIXPVA

     ------------------------------
      FIXPVA TESSELLATION FOR PCM
         PEIFENG SU AND HUI LI
     UNIVERSITY OF NEBRASKA-LINCOLN
     ------------------------------


     INPUT FOR CAVITY DEFINITION 
     ---------------------------
   ATOM               COORDINATES                RADIUS       EPS
      1      1.5244      0.2758      0.9322      1.8100     78.3900
      2      2.8090     -0.0679     -0.2077      1.7000     78.3900
      3      2.9288      1.0023     -1.2505      1.7000     78.3900
      4      3.5353      0.8015     -2.3067      1.5000     78.3900
      5      2.5879     -1.0626     -0.6693      1.2000     78.3900
      6      3.7641     -0.1321      0.3748      1.2000     78.3900
      7      2.4596      1.9845     -1.0193      1.2000     78.3900
      8      4.5102     -1.5556     -4.2117      1.5000     78.3900
      9      4.1888     -0.7980     -3.7097      1.2000     78.3900
     10      4.1612     -1.4036     -5.0966      1.2000     78.3900
     11      3.1308      0.4611     -5.1691      1.5000     78.3900
     12      3.5202      0.8283     -5.9719      1.2000     78.3900
     13      3.3018      1.1463     -4.5073      1.2000     78.3900

 MEMORY USED TO GENERATE CAVITY=    262582


 TOTAL NUMBER OF SPHERES=    13
 SPHERE           CENTER  (X,Y,Z) (A)               RADIUS (A)      AREA(A*A)
     1   1.524440000   0.275770000   0.932220000   2.172000000  38.490629521
     2   2.809020000  -0.067940000  -0.207700000   2.040000000   3.657223925
     3   2.928770000   1.002300000  -1.250520000   2.040000000  12.181771764
     4   3.535260000   0.801550000  -2.306700000   1.800000000   8.973519592
     5   2.587890000  -1.062590000  -0.669290000   1.440000000   7.103966586
     6   3.764080000  -0.132120000   0.374830000   1.440000000   8.266216870
     7   2.459600000   1.984550000  -1.019280000   1.440000000   7.030749145
     8   4.510170000  -1.555570000  -4.211660000   1.800000000  20.269614417
     9   4.188800000  -0.798030000  -3.709730000   1.440000000   0.594274650
    10   4.161250000  -1.403560000  -5.096560000   1.440000000   4.865107973
    11   3.130820000   0.461138228  -5.169060000   1.800000000  12.414301405
    12   3.520250000   0.828300000  -5.971880000   1.440000000   9.897124888
    13   3.301770000   1.146260000  -4.507270000   1.440000000   4.836301259

 TOTAL NUMBER OF TESSERAE=     272
 SURFACE AREA=   138.58080199(A**2)    CAVITY VOLUME=    119.46535634 (A**3)
 STEP CPU TIME =     0.01 TOTAL CPU TIME =          8.4 (      0.1 MIN)
 TOTAL WALL CLOCK TIME=          8.4 SECONDS, CPU UTILIZATION IS   100.00%

          THE SOLUTE IS ENCLOSED IN ONE CAVITY
 DONE CHECKING SEPARATION.
 STEP CPU TIME =     0.00 TOTAL CPU TIME =          8.4 (      0.1 MIN)
 TOTAL WALL CLOCK TIME=          8.4 SECONDS, CPU UTILIZATION IS   100.00%
 
 ..... DONE SETTING UP PCM CALCULATION .....
 STEP CPU TIME =     0.00 TOTAL CPU TIME =          8.4 (      0.1 MIN)
 TOTAL WALL CLOCK TIME=          8.4 SECONDS, CPU UTILIZATION IS   100.00%

          --------------------------
               R-AM1 SCF CALCULATION
          --------------------------
     DENSITY MATRIX CONV=  1.00E-05

 ITER EX DEM     TOTAL ENERGY        E CHANGE  DENSITY CHANGE    DIIS ERROR
   1  0  0      -62.0865906769   -62.0865906769   0.002032088   0.000000000
   2  1  0      -62.0865975531    -0.0000068761   0.001045397   0.000000000
   3  2  0      -62.0865988101    -0.0000012570   0.000532158   0.000000000
   4  3  0      -62.0865991112    -0.0000003010   0.000271141   0.000000000
   5  4  0      -62.0865991904    -0.0000000793   0.000138899   0.000000000
   6  5  0      -62.0865992125    -0.0000000220   0.000071665   0.000000000
   7  6  0      -62.0865992187    -0.0000000062   0.000037263   0.000000000
   8  7  0      -62.0865992205    -0.0000000019   0.000019526   0.000000000
   9  8  0      -62.0865992211    -0.0000000005   0.000010308   0.000000000
  10  9  0      -62.0865992213    -0.0000000002   0.000005481   0.000000000

          -----------------
          DENSITY CONVERGED
          -----------------
     TIME TO FORM FOCK OPERATORS=       0.1 SECONDS (       0.0 SEC/ITER)
     TIME TO SOLVE SCF EQUATIONS=       0.0 SECONDS (       0.0 SEC/ITER)

 FINAL R-AM1 ENERGY IS      -62.0865992213 AFTER  10 ITERATIONS

 HEAT OF FORMATION IS      -182.97467 KCAL/MOL
 
  
   PCM ASC=      0.0393595274
   GCAVP  =      0.0000000000
   GDISP  =      0.0000000000
   GREP   =      0.0000000000
 ...... END OF RHF CALCULATION ......
 STEP CPU TIME =     0.11 TOTAL CPU TIME =          8.5 (      0.1 MIN)
 TOTAL WALL CLOCK TIME=          8.5 SECONDS, CPU UTILIZATION IS   100.00%
 
 .... DONE WITH PCM CONTRIBUTION TO GRADIENT ....
 STEP CPU TIME =     0.02 TOTAL CPU TIME =          8.5 (      0.1 MIN)
 TOTAL WALL CLOCK TIME=          8.5 SECONDS, CPU UTILIZATION IS   100.00%
 STEP CPU TIME =     0.00 TOTAL CPU TIME =          8.5 (      0.1 MIN)
 TOTAL WALL CLOCK TIME=          8.5 SECONDS, CPU UTILIZATION IS   100.00%

 UNITS ARE HARTREE/BOHR    E'X               E'Y               E'Z 
    1 CL              -0.000038250      -0.000028131       0.000007452
    2 C               -0.000051313      -0.000031192       0.000057972
    3 C               -0.000079391       0.000073154       0.000051766
    4 O                0.000084872       0.000004845      -0.000146646
    5 H               -0.000011808      -0.000070961      -0.000029883
    6 H                0.000033051      -0.000006768       0.000036421
    7 H               -0.000026184       0.000013019       0.000006386
    8 O                0.000014257       0.000028373      -0.000000906
    9 H               -0.000001264       0.000042555      -0.000015732
   10 H               -0.000008161       0.000089324       0.000007382
   11 O               -0.001735513      -0.004137310      -0.000173805
   12 H                0.000963033       0.001424826      -0.001376713
   13 H                0.000856670       0.002598267       0.001576306
  $VIB   
          IVIB=   2 IATOM=  11 ICOORD=   2 E=      -62.0865992213
 -3.825030482E-05-2.813062075E-05 7.452132233E-06-5.131296974E-05-3.119247372E-05
  5.797235136E-05-7.939053380E-05 7.315417050E-05 5.176621886E-05 8.487225838E-05
  4.844980640E-06-1.466462119E-04-1.180784240E-05-7.096110651E-05-2.988347698E-05
  3.305140710E-05-6.768453691E-06 3.642098928E-05-2.618445622E-05 1.301912704E-05
  6.386186690E-06 1.425747022E-05 2.837265046E-05-9.057086875E-07-1.264228086E-06
  4.255479904E-05-1.573245573E-05-8.160799165E-06 8.932425803E-05 7.382264477E-06
 -1.735513439E-03-4.137309572E-03-1.738053311E-04 9.630331701E-04 1.424825632E-03
 -1.376712945E-03 8.566702677E-04 2.598266610E-03 1.576305987E-03
 -3.593904719E-01 3.428658019E+00 7.158958052E-01
1   ATOM 11
                                        -------------------
   COORD  3                             NUCLEAR COORDINATES
                                        -------------------
     VIB  2

                       ATOM             X              Y              Z

                 1  CL               2.880774       0.521130       1.761640
                 2  C                5.308278      -0.128388      -0.392496
                 3  C                5.534573       1.894072      -2.363140
                 4  O                6.680673       1.514710      -4.359031
                 5  H                4.890403      -2.008004      -1.264775
                 6  H                7.113080      -0.249671       0.708326
                 7  H                4.647970       3.750256      -1.926160
                 8  O                8.522985      -2.939601      -7.958883
                 9  H                7.915684      -1.508058      -7.010373
                10  H                7.863622      -2.652344      -9.631102
                11  O                5.916392       0.881425      -9.778107
                12  H                6.652308       1.565260     -11.285217
                13  H                6.239441       2.166117      -8.517505

 MOPAC ONE- AND TWO-ELECTRON INTEGRALS REQUIRE      2933 WORDS.
 ...... END OF ONE- AND TWO-ELECTRON INTEGRALS......
 STEP CPU TIME =     0.00 TOTAL CPU TIME =          8.5 (      0.1 MIN)
 TOTAL WALL CLOCK TIME=          8.5 SECONDS, CPU UTILIZATION IS   100.00%
 ...... END OF ONE-ELECTRON INTEGRALS ......
 STEP CPU TIME =     0.00 TOTAL CPU TIME =          8.5 (      0.1 MIN)
 TOTAL WALL CLOCK TIME=          8.5 SECONDS, CPU UTILIZATION IS   100.00%

     ----------------------------
     INPUT FOR TESSERA DEFINITION
     ----------------------------
     NTSALL  =        60     MTHALL  =         4
     MTHAUT  =         0     AUTFRE  =    2.0000
     NTSFRZ  =        60     KEEPSM  =         0
     AREAKP  =   10.0000     BONDRY  =    1.0000
     AREATL  =    0.0100

     SPHERE     INITS       METHOD
          1        60       FIXPVA
          2        60       FIXPVA
          3        60       FIXPVA
          4        60       FIXPVA
          5        60       FIXPVA
          6        60       FIXPVA
          7        60       FIXPVA
          8        60       FIXPVA
          9        60       FIXPVA
         10        60       FIXPVA
         11        60       FIXPVA
         12        60       FIXPVA
         13        60       FIXPVA

     ------------------------------
      FIXPVA TESSELLATION FOR PCM
         PEIFENG SU AND HUI LI
     UNIVERSITY OF NEBRASKA-LINCOLN
     ------------------------------


     INPUT FOR CAVITY DEFINITION 
     ---------------------------
   ATOM               COORDINATES                RADIUS       EPS
      1      1.5244      0.2758      0.9322      1.8100     78.3900
      2      2.8090     -0.0679     -0.2077      1.7000     78.3900
      3      2.9288      1.0023     -1.2505      1.7000     78.3900
      4      3.5353      0.8015     -2.3067      1.5000     78.3900
      5      2.5879     -1.0626     -0.6693      1.2000     78.3900
      6      3.7641     -0.1321      0.3748      1.2000     78.3900
      7      2.4596      1.9845     -1.0193      1.2000     78.3900
      8      4.5102     -1.5556     -4.2117      1.5000     78.3900
      9      4.1888     -0.7980     -3.7097      1.2000     78.3900
     10      4.1612     -1.4036     -5.0966      1.2000     78.3900
     11      3.1308      0.4664     -5.1744      1.5000     78.3900
     12      3.5202      0.8283     -5.9719      1.2000     78.3900
     13      3.3018      1.1463     -4.5073      1.2000     78.3900

 MEMORY USED TO GENERATE CAVITY=    262582


 TOTAL NUMBER OF SPHERES=    13
 SPHERE           CENTER  (X,Y,Z) (A)               RADIUS (A)      AREA(A*A)
     1   1.524440000   0.275770000   0.932220000   2.172000000  38.490629521
     2   2.809020000  -0.067940000  -0.207700000   2.040000000   3.657223925
     3   2.928770000   1.002300000  -1.250520000   2.040000000  12.181771764
     4   3.535260000   0.801550000  -2.306700000   1.800000000   8.978574672
     5   2.587890000  -1.062590000  -0.669290000   1.440000000   7.103966586
     6   3.764080000  -0.132120000   0.374830000   1.440000000   8.266216870
     7   2.459600000   1.984550000  -1.019280000   1.440000000   7.030749145
     8   4.510170000  -1.555570000  -4.211660000   1.800000000  20.269614417
     9   4.188800000  -0.798030000  -3.709730000   1.440000000   0.594187534
    10   4.161250000  -1.403560000  -5.096560000   1.440000000   4.863721192
    11   3.130820000   0.466430000  -5.174351772   1.800000000  12.450982358
    12   3.520250000   0.828300000  -5.971880000   1.440000000   9.792943509
    13   3.301770000   1.146260000  -4.507270000   1.440000000   4.788673237

 TOTAL NUMBER OF TESSERAE=     272
 SURFACE AREA=   138.46925473(A**2)    CAVITY VOLUME=    119.33011523 (A**3)
 STEP CPU TIME =     0.00 TOTAL CPU TIME =          8.5 (      0.1 MIN)
 TOTAL WALL CLOCK TIME=          8.5 SECONDS, CPU UTILIZATION IS   100.00%

          THE SOLUTE IS ENCLOSED IN ONE CAVITY
 DONE CHECKING SEPARATION.
 STEP CPU TIME =     0.00 TOTAL CPU TIME =          8.5 (      0.1 MIN)
 TOTAL WALL CLOCK TIME=          8.5 SECONDS, CPU UTILIZATION IS   100.00%
 
 ..... DONE SETTING UP PCM CALCULATION .....
 STEP CPU TIME =     0.00 TOTAL CPU TIME =          8.5 (      0.1 MIN)
 TOTAL WALL CLOCK TIME=          8.5 SECONDS, CPU UTILIZATION IS   100.00%

          --------------------------
               R-AM1 SCF CALCULATION
          --------------------------
     DENSITY MATRIX CONV=  1.00E-05

 ITER EX DEM     TOTAL ENERGY        E CHANGE  DENSITY CHANGE    DIIS ERROR
   1  0  0      -62.0865902916   -62.0865902916   0.001476848   0.000000000
   2  1  0      -62.0865982462    -0.0000079546   0.000566782   0.000000000
   3  2  0      -62.0865990856    -0.0000008394   0.000235428   0.000000000
   4  3  0      -62.0865992305    -0.0000001450   0.000110961   0.000000000
   5  4  0      -62.0865992618    -0.0000000313   0.000058324   0.000000000
   6  5  0      -62.0865992692    -0.0000000074   0.000030976   0.000000000
   7  6  0      -62.0865992712    -0.0000000019   0.000016613   0.000000000
   8  7  0      -62.0865992717    -0.0000000006   0.000008984   0.000000000
   9  8  0      -62.0865992718    -0.0000000001   0.000004892   0.000000000

          -----------------
          DENSITY CONVERGED
          -----------------
     TIME TO FORM FOCK OPERATORS=       0.1 SECONDS (       0.0 SEC/ITER)
     TIME TO SOLVE SCF EQUATIONS=       0.0 SECONDS (       0.0 SEC/ITER)

 FINAL R-AM1 ENERGY IS      -62.0865992718 AFTER   9 ITERATIONS

 HEAT OF FORMATION IS      -182.97470 KCAL/MOL
 
  
   PCM ASC=      0.0394156756
   GCAVP  =      0.0000000000
   GDISP  =      0.0000000000
   GREP   =      0.0000000000
 ...... END OF RHF CALCULATION ......
 STEP CPU TIME =     0.09 TOTAL CPU TIME =          8.6 (      0.1 MIN)
 TOTAL WALL CLOCK TIME=          8.6 SECONDS, CPU UTILIZATION IS   100.00%
 
 .... DONE WITH PCM CONTRIBUTION TO GRADIENT ....
 STEP CPU TIME =     0.00 TOTAL CPU TIME =          8.6 (      0.1 MIN)
 TOTAL WALL CLOCK TIME=          8.6 SECONDS, CPU UTILIZATION IS   100.00%
 STEP CPU TIME =     0.00 TOTAL CPU TIME =          8.6 (      0.1 MIN)
 TOTAL WALL CLOCK TIME=          8.6 SECONDS, CPU UTILIZATION IS   100.00%

 UNITS ARE HARTREE/BOHR    E'X               E'Y               E'Z 
    1 CL              -0.000039130      -0.000028353       0.000008353
    2 C               -0.000051091      -0.000031830       0.000058488
    3 C               -0.000073286       0.000072166       0.000042040
    4 O                0.000083166       0.000013640      -0.000123065
    5 H               -0.000011946      -0.000070222      -0.000029301
    6 H                0.000032232      -0.000006739       0.000036384
    7 H               -0.000026700       0.000011736       0.000007433
    8 O                0.000040788      -0.000011411       0.000009098
    9 H                0.000032555       0.000008975       0.000046089
   10 H                0.000039887       0.000003284       0.000002135
   11 O                0.000848062      -0.000739950      -0.004713098
   12 H               -0.001353621      -0.001259794       0.002565472
   13 H                0.000479084       0.002038498       0.002089970
  $VIB   
          IVIB=   2 IATOM=  11 ICOORD=   3 E=      -62.0865992718
 -3.912983178E-05-2.835325492E-05 8.353358389E-06-5.109141691E-05-3.183004032E-05
  5.848828514E-05-7.328565908E-05 7.216630837E-05 4.203976664E-05 8.316624932E-05
  1.364013296E-05-1.230647332E-04-1.194571603E-05-7.022207809E-05-2.930051015E-05
  3.223228580E-05-6.738819300E-06 3.638447923E-05-2.670046689E-05 1.173583803E-05
  7.433130493E-06 4.078800204E-05-1.141085565E-05 9.098011424E-06 3.255509278E-05
  8.975170817E-06 4.608886706E-05 3.988691523E-05 3.283722443E-06 2.134978705E-06
  8.480615858E-04-7.399498400E-04-4.713097985E-03-1.353621441E-03-1.259794458E-03
  2.565472307E-03 4.790844009E-04 2.038498173E-03 2.089970044E-03
 -3.542455291E-01 3.417660877E+00 7.262803180E-01
1   ATOM 12
                                        -------------------
   COORD  1                             NUCLEAR COORDINATES
                                        -------------------
     VIB  2

                       ATOM             X              Y              Z

                 1  CL               2.880774       0.521130       1.761640
                 2  C                5.308278      -0.128388      -0.392496
                 3  C                5.534573       1.894072      -2.363140
                 4  O                6.680673       1.514710      -4.359031
                 5  H                4.890403      -2.008004      -1.264775
                 6  H                7.113080      -0.249671       0.708326
                 7  H                4.647970       3.750256      -1.926160
                 8  O                8.522985      -2.939601      -7.958883
                 9  H                7.915684      -1.508058      -7.010373
                10  H                7.863622      -2.652344      -9.631102
                11  O                5.916392       0.881425      -9.768107
                12  H                6.642308       1.565260     -11.285217
                13  H                6.239441       2.166117      -8.517505

 MOPAC ONE- AND TWO-ELECTRON INTEGRALS REQUIRE      2933 WORDS.
 ...... END OF ONE- AND TWO-ELECTRON INTEGRALS......
 STEP CPU TIME =     0.00 TOTAL CPU TIME =          8.6 (      0.1 MIN)
 TOTAL WALL CLOCK TIME=          8.6 SECONDS, CPU UTILIZATION IS   100.00%
 ...... END OF ONE-ELECTRON INTEGRALS ......
 STEP CPU TIME =     0.00 TOTAL CPU TIME =          8.6 (      0.1 MIN)
 TOTAL WALL CLOCK TIME=          8.6 SECONDS, CPU UTILIZATION IS   100.00%

     ----------------------------
     INPUT FOR TESSERA DEFINITION
     ----------------------------
     NTSALL  =        60     MTHALL  =         4
     MTHAUT  =         0     AUTFRE  =    2.0000
     NTSFRZ  =        60     KEEPSM  =         0
     AREAKP  =   10.0000     BONDRY  =    1.0000
     AREATL  =    0.0100

     SPHERE     INITS       METHOD
          1        60       FIXPVA
          2        60       FIXPVA
          3        60       FIXPVA
          4        60       FIXPVA
          5        60       FIXPVA
          6        60       FIXPVA
          7        60       FIXPVA
          8        60       FIXPVA
          9        60       FIXPVA
         10        60       FIXPVA
         11        60       FIXPVA
         12        60       FIXPVA
         13        60       FIXPVA

     ------------------------------
      FIXPVA TESSELLATION FOR PCM
         PEIFENG SU AND HUI LI
     UNIVERSITY OF NEBRASKA-LINCOLN
     ------------------------------


     INPUT FOR CAVITY DEFINITION 
     ---------------------------
   ATOM               COORDINATES                RADIUS       EPS
      1      1.5244      0.2758      0.9322      1.8100     78.3900
      2      2.8090     -0.0679     -0.2077      1.7000     78.3900
      3      2.9288      1.0023     -1.2505      1.7000     78.3900
      4      3.5353      0.8015     -2.3067      1.5000     78.3900
      5      2.5879     -1.0626     -0.6693      1.2000     78.3900
      6      3.7641     -0.1321      0.3748      1.2000     78.3900
      7      2.4596      1.9845     -1.0193      1.2000     78.3900
      8      4.5102     -1.5556     -4.2117      1.5000     78.3900
      9      4.1888     -0.7980     -3.7097      1.2000     78.3900
     10      4.1612     -1.4036     -5.0966      1.2000     78.3900
     11      3.1308      0.4664     -5.1691      1.5000     78.3900
     12      3.5150      0.8283     -5.9719      1.2000     78.3900
     13      3.3018      1.1463     -4.5073      1.2000     78.3900

 MEMORY USED TO GENERATE CAVITY=    262582


 TOTAL NUMBER OF SPHERES=    13
 SPHERE           CENTER  (X,Y,Z) (A)               RADIUS (A)      AREA(A*A)
     1   1.524440000   0.275770000   0.932220000   2.172000000  38.490629521
     2   2.809020000  -0.067940000  -0.207700000   2.040000000   3.657223925
     3   2.928770000   1.002300000  -1.250520000   2.040000000  12.181771764
     4   3.535260000   0.801550000  -2.306700000   1.800000000   8.978195913
     5   2.587890000  -1.062590000  -0.669290000   1.440000000   7.103966586
     6   3.764080000  -0.132120000   0.374830000   1.440000000   8.266216870
     7   2.459600000   1.984550000  -1.019280000   1.440000000   7.030749145
     8   4.510170000  -1.555570000  -4.211660000   1.800000000  20.277218970
     9   4.188800000  -0.798030000  -3.709730000   1.440000000   0.594081452
    10   4.161250000  -1.403560000  -5.096560000   1.440000000   4.869727449
    11   3.130820000   0.466430000  -5.169060000   1.800000000  12.439258528
    12   3.514958228   0.828300000  -5.971880000   1.440000000   9.862616066
    13   3.301770000   1.146260000  -4.507270000   1.440000000   4.782280594

 TOTAL NUMBER OF TESSERAE=     272
 SURFACE AREA=   138.53393678(A**2)    CAVITY VOLUME=    119.42090709 (A**3)
 STEP CPU TIME =     0.00 TOTAL CPU TIME =          8.6 (      0.1 MIN)
 TOTAL WALL CLOCK TIME=          8.6 SECONDS, CPU UTILIZATION IS   100.00%

          THE SOLUTE IS ENCLOSED IN ONE CAVITY
 DONE CHECKING SEPARATION.
 STEP CPU TIME =     0.00 TOTAL CPU TIME =          8.6 (      0.1 MIN)
 TOTAL WALL CLOCK TIME=          8.6 SECONDS, CPU UTILIZATION IS   100.00%
 
 ..... DONE SETTING UP PCM CALCULATION .....
 STEP CPU TIME =     0.00 TOTAL CPU TIME =          8.6 (      0.1 MIN)
 TOTAL WALL CLOCK TIME=          8.6 SECONDS, CPU UTILIZATION IS   100.00%

          --------------------------
               R-AM1 SCF CALCULATION
          --------------------------
     DENSITY MATRIX CONV=  1.00E-05

 ITER EX DEM     TOTAL ENERGY        E CHANGE  DENSITY CHANGE    DIIS ERROR
   1  0  0      -62.0866127040   -62.0866127040   0.001986659   0.000000000
   2  1  0      -62.0866170978    -0.0000043939   0.001056023   0.000000000
   3  2  0      -62.0866182506    -0.0000011527   0.000567809   0.000000000
   4  3  0      -62.0866185827    -0.0000003321   0.000307121   0.000000000
   5  4  0      -62.0866186805    -0.0000000979   0.000166718   0.000000000
   6  5  0      -62.0866187097    -0.0000000291   0.000090731   0.000000000
   7  6  0      -62.0866187184    -0.0000000088   0.000049474   0.000000000
   8  7  0      -62.0866187210    -0.0000000026   0.000027020   0.000000000
   9  8  0      -62.0866187218    -0.0000000007   0.000014777   0.000000000
  10  9  0      -62.0866187220    -0.0000000003   0.000008091   0.000000000

          -----------------
          DENSITY CONVERGED
          -----------------
     TIME TO FORM FOCK OPERATORS=       0.1 SECONDS (       0.0 SEC/ITER)
     TIME TO SOLVE SCF EQUATIONS=       0.0 SECONDS (       0.0 SEC/ITER)

 FINAL R-AM1 ENERGY IS      -62.0866187220 AFTER  10 ITERATIONS

 HEAT OF FORMATION IS      -182.98690 KCAL/MOL
 
  
   PCM ASC=      0.0393958000
   GCAVP  =      0.0000000000
   GDISP  =      0.0000000000
   GREP   =      0.0000000000
 ...... END OF RHF CALCULATION ......
 STEP CPU TIME =     0.11 TOTAL CPU TIME =          8.7 (      0.1 MIN)
 TOTAL WALL CLOCK TIME=          8.7 SECONDS, CPU UTILIZATION IS   100.00%
 
 .... DONE WITH PCM CONTRIBUTION TO GRADIENT ....
 STEP CPU TIME =     0.01 TOTAL CPU TIME =          8.7 (      0.1 MIN)
 TOTAL WALL CLOCK TIME=          8.7 SECONDS, CPU UTILIZATION IS   100.00%
 STEP CPU TIME =     0.00 TOTAL CPU TIME =          8.7 (      0.1 MIN)
 TOTAL WALL CLOCK TIME=          8.7 SECONDS, CPU UTILIZATION IS   100.00%

 UNITS ARE HARTREE/BOHR    E'X               E'Y               E'Z 
    1 CL              -0.000038304      -0.000028135       0.000007477
    2 C               -0.000050981      -0.000031257       0.000057939
    3 C               -0.000080019       0.000073830       0.000050916
    4 O                0.000083945       0.000006353      -0.000153594
    5 H               -0.000011833      -0.000070802      -0.000029751
    6 H                0.000033001      -0.000006805       0.000036439
    7 H               -0.000026415       0.000012925       0.000006364
    8 O                0.000035924       0.000003684       0.000020854
    9 H                0.000016587       0.000023724       0.000015567
   10 H                0.000030976       0.000008691      -0.000006557
   11 O                0.000662402       0.000594381      -0.001131130
   12 H               -0.000611122      -0.000573037       0.001020785
   13 H               -0.000044161      -0.000013553       0.000104690
  $VIB   
          IVIB=   2 IATOM=  12 ICOORD=   1 E=      -62.0866187220
 -3.830370195E-05-2.813526742E-05 7.476797835E-06-5.098077713E-05-3.125678615E-05
  5.793948836E-05-8.001876977E-05 7.382959258E-05 5.091647175E-05 8.394477494E-05
  6.353321162E-06-1.535942624E-04-1.183332644E-05-7.080224437E-05-2.975141561E-05
  3.300071835E-05-6.804798223E-06 3.643907980E-05-2.641484973E-05 1.292530878E-05
  6.364330953E-06 3.592355004E-05 3.684185271E-06 2.085421609E-05 1.658663543E-05
  2.372431057E-05 1.556734967E-05 3.097633375E-05 8.690654564E-06-6.557397079E-06
  6.624019020E-04 5.943813071E-04-1.131130021E-03-6.111215541E-04-5.730369339E-04
  1.020785333E-03-4.416093543E-05-1.355264995E-05 1.046900283E-04
 -3.635238918E-01 3.420002980E+00 7.141411148E-01
1   ATOM 12
                                        -------------------
   COORD  2                             NUCLEAR COORDINATES
                                        -------------------
     VIB  2

                       ATOM             X              Y              Z

                 1  CL               2.880774       0.521130       1.761640
                 2  C                5.308278      -0.128388      -0.392496
                 3  C                5.534573       1.894072      -2.363140
                 4  O                6.680673       1.514710      -4.359031
                 5  H                4.890403      -2.008004      -1.264775
                 6  H                7.113080      -0.249671       0.708326
                 7  H                4.647970       3.750256      -1.926160
                 8  O                8.522985      -2.939601      -7.958883
                 9  H                7.915684      -1.508058      -7.010373
                10  H                7.863622      -2.652344      -9.631102
                11  O                5.916392       0.881425      -9.768107
                12  H                6.652308       1.555260     -11.285217
                13  H                6.239441       2.166117      -8.517505

 MOPAC ONE- AND TWO-ELECTRON INTEGRALS REQUIRE      2933 WORDS.
 ...... END OF ONE- AND TWO-ELECTRON INTEGRALS......
 STEP CPU TIME =     0.00 TOTAL CPU TIME =          8.7 (      0.1 MIN)
 TOTAL WALL CLOCK TIME=          8.7 SECONDS, CPU UTILIZATION IS   100.00%
 ...... END OF ONE-ELECTRON INTEGRALS ......
 STEP CPU TIME =     0.00 TOTAL CPU TIME =          8.7 (      0.1 MIN)
 TOTAL WALL CLOCK TIME=          8.7 SECONDS, CPU UTILIZATION IS   100.00%

     ----------------------------
     INPUT FOR TESSERA DEFINITION
     ----------------------------
     NTSALL  =        60     MTHALL  =         4
     MTHAUT  =         0     AUTFRE  =    2.0000
     NTSFRZ  =        60     KEEPSM  =         0
     AREAKP  =   10.0000     BONDRY  =    1.0000
     AREATL  =    0.0100

     SPHERE     INITS       METHOD
          1        60       FIXPVA
          2        60       FIXPVA
          3        60       FIXPVA
          4        60       FIXPVA
          5        60       FIXPVA
          6        60       FIXPVA
          7        60       FIXPVA
          8        60       FIXPVA
          9        60       FIXPVA
         10        60       FIXPVA
         11        60       FIXPVA
         12        60       FIXPVA
         13        60       FIXPVA

     ------------------------------
      FIXPVA TESSELLATION FOR PCM
         PEIFENG SU AND HUI LI
     UNIVERSITY OF NEBRASKA-LINCOLN
     ------------------------------


     INPUT FOR CAVITY DEFINITION 
     ---------------------------
   ATOM               COORDINATES                RADIUS       EPS
      1      1.5244      0.2758      0.9322      1.8100     78.3900
      2      2.8090     -0.0679     -0.2077      1.7000     78.3900
      3      2.9288      1.0023     -1.2505      1.7000     78.3900
      4      3.5353      0.8015     -2.3067      1.5000     78.3900
      5      2.5879     -1.0626     -0.6693      1.2000     78.3900
      6      3.7641     -0.1321      0.3748      1.2000     78.3900
      7      2.4596      1.9845     -1.0193      1.2000     78.3900
      8      4.5102     -1.5556     -4.2117      1.5000     78.3900
      9      4.1888     -0.7980     -3.7097      1.2000     78.3900
     10      4.1612     -1.4036     -5.0966      1.2000     78.3900
     11      3.1308      0.4664     -5.1691      1.5000     78.3900
     12      3.5202      0.8230     -5.9719      1.2000     78.3900
     13      3.3018      1.1463     -4.5073      1.2000     78.3900

 MEMORY USED TO GENERATE CAVITY=    262582


 TOTAL NUMBER OF SPHERES=    13
 SPHERE           CENTER  (X,Y,Z) (A)               RADIUS (A)      AREA(A*A)
     1   1.524440000   0.275770000   0.932220000   2.172000000  38.490629521
     2   2.809020000  -0.067940000  -0.207700000   2.040000000   3.657223925
     3   2.928770000   1.002300000  -1.250520000   2.040000000  12.181771764
     4   3.535260000   0.801550000  -2.306700000   1.800000000   8.978195913
     5   2.587890000  -1.062590000  -0.669290000   1.440000000   7.103966586
     6   3.764080000  -0.132120000   0.374830000   1.440000000   8.266216870
     7   2.459600000   1.984550000  -1.019280000   1.440000000   7.030749145
     8   4.510170000  -1.555570000  -4.211660000   1.800000000  20.268444909
     9   4.188800000  -0.798030000  -3.709730000   1.440000000   0.594081452
    10   4.161250000  -1.403560000  -5.096560000   1.440000000   4.855494730
    11   3.130820000   0.466430000  -5.169060000   1.800000000  12.439258795
    12   3.520250000   0.823008228  -5.971880000   1.440000000   9.777277129
    13   3.301770000   1.146260000  -4.507270000   1.440000000   4.789888109

 TOTAL NUMBER OF TESSERAE=     272
 SURFACE AREA=   138.43319885(A**2)    CAVITY VOLUME=    119.34621608 (A**3)
 STEP CPU TIME =     0.01 TOTAL CPU TIME =          8.7 (      0.1 MIN)
 TOTAL WALL CLOCK TIME=          8.7 SECONDS, CPU UTILIZATION IS   100.00%

          THE SOLUTE IS ENCLOSED IN ONE CAVITY
 DONE CHECKING SEPARATION.
 STEP CPU TIME =     0.00 TOTAL CPU TIME =          8.7 (      0.1 MIN)
 TOTAL WALL CLOCK TIME=          8.7 SECONDS, CPU UTILIZATION IS   100.00%
 
 ..... DONE SETTING UP PCM CALCULATION .....
 STEP CPU TIME =     0.00 TOTAL CPU TIME =          8.7 (      0.1 MIN)
 TOTAL WALL CLOCK TIME=          8.7 SECONDS, CPU UTILIZATION IS   100.00%

          --------------------------
               R-AM1 SCF CALCULATION
          --------------------------
     DENSITY MATRIX CONV=  1.00E-05

 ITER EX DEM     TOTAL ENERGY        E CHANGE  DENSITY CHANGE    DIIS ERROR
   1  0  0      -62.0866128990   -62.0866128990   0.001731241   0.000000000
   2  1  0      -62.0866168150    -0.0000039161   0.000793320   0.000000000
   3  2  0      -62.0866176073    -0.0000007923   0.000370199   0.000000000
   4  3  0      -62.0866177850    -0.0000001777   0.000175491   0.000000000
   5  4  0      -62.0866178273    -0.0000000424   0.000084432   0.000000000
   6  5  0      -62.0866178381    -0.0000000108   0.000041211   0.000000000
   7  6  0      -62.0866178409    -0.0000000028   0.000020567   0.000000000
   8  7  0      -62.0866178417    -0.0000000008   0.000011622   0.000000000
   9  8  0      -62.0866178419    -0.0000000002   0.000006528   0.000000000

          -----------------
          DENSITY CONVERGED
          -----------------
     TIME TO FORM FOCK OPERATORS=       0.1 SECONDS (       0.0 SEC/ITER)
     TIME TO SOLVE SCF EQUATIONS=       0.0 SECONDS (       0.0 SEC/ITER)

 FINAL R-AM1 ENERGY IS      -62.0866178419 AFTER   9 ITERATIONS

 HEAT OF FORMATION IS      -182.98635 KCAL/MOL
 
  
   PCM ASC=      0.0394369010
   GCAVP  =      0.0000000000
   GDISP  =      0.0000000000
   GREP   =      0.0000000000
 ...... END OF RHF CALCULATION ......
 STEP CPU TIME =     0.11 TOTAL CPU TIME =          8.8 (      0.1 MIN)
 TOTAL WALL CLOCK TIME=          8.8 SECONDS, CPU UTILIZATION IS   100.00%
 
 .... DONE WITH PCM CONTRIBUTION TO GRADIENT ....
 STEP CPU TIME =     0.02 TOTAL CPU TIME =          8.9 (      0.1 MIN)
 TOTAL WALL CLOCK TIME=          8.9 SECONDS, CPU UTILIZATION IS   100.00%
 STEP CPU TIME =     0.00 TOTAL CPU TIME =          8.9 (      0.1 MIN)
 TOTAL WALL CLOCK TIME=          8.9 SECONDS, CPU UTILIZATION IS   100.00%

 UNITS ARE HARTREE/BOHR    E'X               E'Y               E'Z 
    1 CL              -0.000038342      -0.000028157       0.000007542
    2 C               -0.000051008      -0.000031313       0.000057957
    3 C               -0.000079678       0.000073765       0.000050599
    4 O                0.000083407       0.000006495      -0.000151985
    5 H               -0.000011857      -0.000070768      -0.000029722
    6 H                0.000032948      -0.000006796       0.000036437
    7 H               -0.000026401       0.000012866       0.000006408
    8 O                0.000033015       0.000003771       0.000024861
    9 H                0.000024233       0.000017853       0.000013752
   10 H                0.000031493       0.000024523      -0.000012275
   11 O                0.000815528       0.000981687      -0.001096086
   12 H               -0.000629260      -0.000842011       0.000702730
   13 H               -0.000184077      -0.000141914       0.000389781
  $VIB   
          IVIB=   2 IATOM=  12 ICOORD=   2 E=      -62.0866178419
 -3.834228922E-05-2.815722252E-05 7.541944067E-06-5.100803606E-05-3.131259913E-05
  5.795721216E-05-7.967797736E-05 7.376510527E-05 5.059915529E-05 8.340666768E-05
  6.495217731E-06-1.519848660E-04-1.185657547E-05-7.076837655E-05-2.972196819E-05
  3.294780451E-05-6.796478373E-06 3.643720577E-05-2.640106555E-05 1.286625219E-05
  6.407638172E-06 3.301507843E-05 3.770559234E-06 2.486059318E-05 2.423252143E-05
  1.785293293E-05 1.375249348E-05 3.149289516E-05 2.452329542E-05-1.227493041E-05
  8.155283582E-04 9.816871913E-04-1.096085536E-03-6.292600093E-04-8.420114516E-04
  7.027301927E-04-1.840773725E-04-1.419144259E-04 3.897808657E-04
 -3.540027370E-01 3.412083219E+00 7.141525515E-01
1   ATOM 12
                                        -------------------
   COORD  3                             NUCLEAR COORDINATES
                                        -------------------
     VIB  2

                       ATOM             X              Y              Z

                 1  CL               2.880774       0.521130       1.761640
                 2  C                5.308278      -0.128388      -0.392496
                 3  C                5.534573       1.894072      -2.363140
                 4  O                6.680673       1.514710      -4.359031
                 5  H                4.890403      -2.008004      -1.264775
                 6  H                7.113080      -0.249671       0.708326
                 7  H                4.647970       3.750256      -1.926160
                 8  O                8.522985      -2.939601      -7.958883
                 9  H                7.915684      -1.508058      -7.010373
                10  H                7.863622      -2.652344      -9.631102
                11  O                5.916392       0.881425      -9.768107
                12  H                6.652308       1.565260     -11.295217
                13  H                6.239441       2.166117      -8.517505

 MOPAC ONE- AND TWO-ELECTRON INTEGRALS REQUIRE      2933 WORDS.
 ...... END OF ONE- AND TWO-ELECTRON INTEGRALS......
 STEP CPU TIME =     0.00 TOTAL CPU TIME =          8.9 (      0.1 MIN)
 TOTAL WALL CLOCK TIME=          8.9 SECONDS, CPU UTILIZATION IS   100.00%
 ...... END OF ONE-ELECTRON INTEGRALS ......
 STEP CPU TIME =     0.00 TOTAL CPU TIME =          8.9 (      0.1 MIN)
 TOTAL WALL CLOCK TIME=          8.9 SECONDS, CPU UTILIZATION IS   100.00%

     ----------------------------
     INPUT FOR TESSERA DEFINITION
     ----------------------------
     NTSALL  =        60     MTHALL  =         4
     MTHAUT  =         0     AUTFRE  =    2.0000
     NTSFRZ  =        60     KEEPSM  =         0
     AREAKP  =   10.0000     BONDRY  =    1.0000
     AREATL  =    0.0100

     SPHERE     INITS       METHOD
          1        60       FIXPVA
          2        60       FIXPVA
          3        60       FIXPVA
          4        60       FIXPVA
          5        60       FIXPVA
          6        60       FIXPVA
          7        60       FIXPVA
          8        60       FIXPVA
          9        60       FIXPVA
         10        60       FIXPVA
         11        60       FIXPVA
         12        60       FIXPVA
         13        60       FIXPVA

     ------------------------------
      FIXPVA TESSELLATION FOR PCM
         PEIFENG SU AND HUI LI
     UNIVERSITY OF NEBRASKA-LINCOLN
     ------------------------------


     INPUT FOR CAVITY DEFINITION 
     ---------------------------
   ATOM               COORDINATES                RADIUS       EPS
      1      1.5244      0.2758      0.9322      1.8100     78.3900
      2      2.8090     -0.0679     -0.2077      1.7000     78.3900
      3      2.9288      1.0023     -1.2505      1.7000     78.3900
      4      3.5353      0.8015     -2.3067      1.5000     78.3900
      5      2.5879     -1.0626     -0.6693      1.2000     78.3900
      6      3.7641     -0.1321      0.3748      1.2000     78.3900
      7      2.4596      1.9845     -1.0193      1.2000     78.3900
      8      4.5102     -1.5556     -4.2117      1.5000     78.3900
      9      4.1888     -0.7980     -3.7097      1.2000     78.3900
     10      4.1612     -1.4036     -5.0966      1.2000     78.3900
     11      3.1308      0.4664     -5.1691      1.5000     78.3900
     12      3.5202      0.8283     -5.9772      1.2000     78.3900
     13      3.3018      1.1463     -4.5073      1.2000     78.3900

 MEMORY USED TO GENERATE CAVITY=    262582


 TOTAL NUMBER OF SPHERES=    13
 SPHERE           CENTER  (X,Y,Z) (A)               RADIUS (A)      AREA(A*A)
     1   1.524440000   0.275770000   0.932220000   2.172000000  38.490629521
     2   2.809020000  -0.067940000  -0.207700000   2.040000000   3.657223925
     3   2.928770000   1.002300000  -1.250520000   2.040000000  12.181771764
     4   3.535260000   0.801550000  -2.306700000   1.800000000   8.978195913
     5   2.587890000  -1.062590000  -0.669290000   1.440000000   7.103966586
     6   3.764080000  -0.132120000   0.374830000   1.440000000   8.266216870
     7   2.459600000   1.984550000  -1.019280000   1.440000000   7.030749145
     8   4.510170000  -1.555570000  -4.211660000   1.800000000  20.270761823
     9   4.188800000  -0.798030000  -3.709730000   1.440000000   0.594081452
    10   4.161250000  -1.403560000  -5.096560000   1.440000000   4.859854843
    11   3.130820000   0.466430000  -5.169060000   1.800000000  12.439258795
    12   3.520250000   0.828300000  -5.977171772   1.440000000   9.901514948
    13   3.301770000   1.146260000  -4.507270000   1.440000000   4.783203870

 TOTAL NUMBER OF TESSERAE=     272
 SURFACE AREA=   138.55742945(A**2)    CAVITY VOLUME=    119.43864768 (A**3)
 STEP CPU TIME =     0.00 TOTAL CPU TIME =          8.9 (      0.1 MIN)
 TOTAL WALL CLOCK TIME=          8.9 SECONDS, CPU UTILIZATION IS   100.00%

          THE SOLUTE IS ENCLOSED IN ONE CAVITY
 DONE CHECKING SEPARATION.
 STEP CPU TIME =     0.00 TOTAL CPU TIME =          8.9 (      0.1 MIN)
 TOTAL WALL CLOCK TIME=          8.9 SECONDS, CPU UTILIZATION IS   100.00%
 
 ..... DONE SETTING UP PCM CALCULATION .....
 STEP CPU TIME =     0.00 TOTAL CPU TIME =          8.9 (      0.1 MIN)
 TOTAL WALL CLOCK TIME=          8.9 SECONDS, CPU UTILIZATION IS   100.00%

          --------------------------
               R-AM1 SCF CALCULATION
          --------------------------
     DENSITY MATRIX CONV=  1.00E-05

 ITER EX DEM     TOTAL ENERGY        E CHANGE  DENSITY CHANGE    DIIS ERROR
   1  0  0      -62.0865970306   -62.0865970306   0.001022599   0.000000000
   2  1  0      -62.0866000693    -0.0000030387   0.000308282   0.000000000
   3  2  0      -62.0866003127    -0.0000002434   0.000165936   0.000000000
   4  3  0      -62.0866003519    -0.0000000391   0.000088328   0.000000000
   5  4  0      -62.0866003609    -0.0000000091   0.000047063   0.000000000
   6  5  0      -62.0866003633    -0.0000000024   0.000025191   0.000000000
   7  6  0      -62.0866003639    -0.0000000007   0.000013553   0.000000000
   8  7  0      -62.0866003641    -0.0000000002   0.000007326   0.000000000

          -----------------
          DENSITY CONVERGED
          -----------------
     TIME TO FORM FOCK OPERATORS=       0.1 SECONDS (       0.0 SEC/ITER)
     TIME TO SOLVE SCF EQUATIONS=       0.0 SECONDS (       0.0 SEC/ITER)

 FINAL R-AM1 ENERGY IS      -62.0866003641 AFTER   8 ITERATIONS

 HEAT OF FORMATION IS      -182.97538 KCAL/MOL
 
  
   PCM ASC=      0.0393935166
   GCAVP  =      0.0000000000
   GDISP  =      0.0000000000
   GREP   =      0.0000000000
 ...... END OF RHF CALCULATION ......
 STEP CPU TIME =     0.08 TOTAL CPU TIME =          8.9 (      0.1 MIN)
 TOTAL WALL CLOCK TIME=          8.9 SECONDS, CPU UTILIZATION IS   100.00%
 
 .... DONE WITH PCM CONTRIBUTION TO GRADIENT ....
 STEP CPU TIME =     0.01 TOTAL CPU TIME =          8.9 (      0.1 MIN)
 TOTAL WALL CLOCK TIME=          8.9 SECONDS, CPU UTILIZATION IS   100.00%
 STEP CPU TIME =     0.00 TOTAL CPU TIME =          8.9 (      0.1 MIN)
 TOTAL WALL CLOCK TIME=          8.9 SECONDS, CPU UTILIZATION IS   100.00%

 UNITS ARE HARTREE/BOHR    E'X               E'Y               E'Z 
    1 CL              -0.000038161      -0.000028091       0.000007352
    2 C               -0.000050913      -0.000031214       0.000057821
    3 C               -0.000081238       0.000074264       0.000053032
    4 O                0.000084450       0.000005518      -0.000158557
    5 H               -0.000011821      -0.000070915      -0.000029840
    6 H                0.000033134      -0.000006811       0.000036449
    7 H               -0.000026364       0.000013158       0.000006132
    8 O                0.000033217       0.000009231       0.000019467
    9 H                0.000019953       0.000018415       0.000017334
   10 H                0.000033767       0.000004927      -0.000005739
   11 O               -0.001353919      -0.001224868       0.003233209
   12 H                0.001510879       0.001256871      -0.003759244
   13 H               -0.000152984      -0.000020484       0.000522585
  $VIB   
          IVIB=   2 IATOM=  12 ICOORD=   3 E=      -62.0866003641
 -3.816147682E-05-2.809068836E-05 7.352282719E-06-5.091313197E-05-3.121445427E-05
  5.782056426E-05-8.123783960E-05 7.426441155E-05 5.303153733E-05 8.444999581E-05
  5.517809091E-06-1.585566772E-04-1.182096291E-05-7.091528673E-05-2.983954359E-05
  3.313407507E-05-6.811114103E-06 3.644860927E-05-2.636353164E-05 1.315784617E-05
  6.132047925E-06 3.321726730E-05 9.230986374E-06 1.946711882E-05 1.995287620E-05
  1.841498944E-05 1.733380337E-05 3.376693243E-05 4.927020004E-06-5.739078063E-06
 -1.353919016E-03-1.224868433E-03 3.233208643E-03 1.510879008E-03 1.256871298E-03
 -3.759243860E-03-1.529841952E-04-2.048438379E-05 5.225845518E-04
 -3.577196184E-01 3.417265085E+00 7.122695523E-01
1   ATOM 13
                                        -------------------
   COORD  1                             NUCLEAR COORDINATES
                                        -------------------
     VIB  2

                       ATOM             X              Y              Z

                 1  CL               2.880774       0.521130       1.761640
                 2  C                5.308278      -0.128388      -0.392496
                 3  C                5.534573       1.894072      -2.363140
                 4  O                6.680673       1.514710      -4.359031
                 5  H                4.890403      -2.008004      -1.264775
                 6  H                7.113080      -0.249671       0.708326
                 7  H                4.647970       3.750256      -1.926160
                 8  O                8.522985      -2.939601      -7.958883
                 9  H                7.915684      -1.508058      -7.010373
                10  H                7.863622      -2.652344      -9.631102
                11  O                5.916392       0.881425      -9.768107
                12  H                6.652308       1.565260     -11.285217
                13  H                6.229441       2.166117      -8.517505

 MOPAC ONE- AND TWO-ELECTRON INTEGRALS REQUIRE      2933 WORDS.
 ...... END OF ONE- AND TWO-ELECTRON INTEGRALS......
 STEP CPU TIME =     0.00 TOTAL CPU TIME =          8.9 (      0.1 MIN)
 TOTAL WALL CLOCK TIME=          8.9 SECONDS, CPU UTILIZATION IS   100.00%
 ...... END OF ONE-ELECTRON INTEGRALS ......
 STEP CPU TIME =     0.00 TOTAL CPU TIME =          8.9 (      0.1 MIN)
 TOTAL WALL CLOCK TIME=          8.9 SECONDS, CPU UTILIZATION IS   100.00%

     ----------------------------
     INPUT FOR TESSERA DEFINITION
     ----------------------------
     NTSALL  =        60     MTHALL  =         4
     MTHAUT  =         0     AUTFRE  =    2.0000
     NTSFRZ  =        60     KEEPSM  =         0
     AREAKP  =   10.0000     BONDRY  =    1.0000
     AREATL  =    0.0100

     SPHERE     INITS       METHOD
          1        60       FIXPVA
          2        60       FIXPVA
          3        60       FIXPVA
          4        60       FIXPVA
          5        60       FIXPVA
          6        60       FIXPVA
          7        60       FIXPVA
          8        60       FIXPVA
          9        60       FIXPVA
         10        60       FIXPVA
         11        60       FIXPVA
         12        60       FIXPVA
         13        60       FIXPVA

     ------------------------------
      FIXPVA TESSELLATION FOR PCM
         PEIFENG SU AND HUI LI
     UNIVERSITY OF NEBRASKA-LINCOLN
     ------------------------------


     INPUT FOR CAVITY DEFINITION 
     ---------------------------
   ATOM               COORDINATES                RADIUS       EPS
      1      1.5244      0.2758      0.9322      1.8100     78.3900
      2      2.8090     -0.0679     -0.2077      1.7000     78.3900
      3      2.9288      1.0023     -1.2505      1.7000     78.3900
      4      3.5353      0.8015     -2.3067      1.5000     78.3900
      5      2.5879     -1.0626     -0.6693      1.2000     78.3900
      6      3.7641     -0.1321      0.3748      1.2000     78.3900
      7      2.4596      1.9845     -1.0193      1.2000     78.3900
      8      4.5102     -1.5556     -4.2117      1.5000     78.3900
      9      4.1888     -0.7980     -3.7097      1.2000     78.3900
     10      4.1612     -1.4036     -5.0966      1.2000     78.3900
     11      3.1308      0.4664     -5.1691      1.5000     78.3900
     12      3.5202      0.8283     -5.9719      1.2000     78.3900
     13      3.2965      1.1463     -4.5073      1.2000     78.3900

 MEMORY USED TO GENERATE CAVITY=    262582


 TOTAL NUMBER OF SPHERES=    13
 SPHERE           CENTER  (X,Y,Z) (A)               RADIUS (A)      AREA(A*A)
     1   1.524440000   0.275770000   0.932220000   2.172000000  38.490629521
     2   2.809020000  -0.067940000  -0.207700000   2.040000000   3.657223925
     3   2.928770000   1.002300000  -1.250520000   2.040000000  12.181621114
     4   3.535260000   0.801550000  -2.306700000   1.800000000   8.968218245
     5   2.587890000  -1.062590000  -0.669290000   1.440000000   7.103966586
     6   3.764080000  -0.132120000   0.374830000   1.440000000   8.266216870
     7   2.459600000   1.984550000  -1.019280000   1.440000000   7.030749145
     8   4.510170000  -1.555570000  -4.211660000   1.800000000  20.269614417
     9   4.188800000  -0.798030000  -3.709730000   1.440000000   0.596864203
    10   4.161250000  -1.403560000  -5.096560000   1.440000000   4.865725829
    11   3.130820000   0.466430000  -5.169060000   1.800000000  12.395202473
    12   3.520250000   0.828300000  -5.971880000   1.440000000   9.846705604
    13   3.296478228   1.146260000  -4.507270000   1.440000000   4.790064835

 TOTAL NUMBER OF TESSERAE=     272
 SURFACE AREA=   138.46280277(A**2)    CAVITY VOLUME=    119.35596602 (A**3)
 STEP CPU TIME =     0.01 TOTAL CPU TIME =          9.0 (      0.1 MIN)
 TOTAL WALL CLOCK TIME=          9.0 SECONDS, CPU UTILIZATION IS   100.00%

          THE SOLUTE IS ENCLOSED IN ONE CAVITY
 DONE CHECKING SEPARATION.
 STEP CPU TIME =     0.00 TOTAL CPU TIME =          9.0 (      0.1 MIN)
 TOTAL WALL CLOCK TIME=          9.0 SECONDS, CPU UTILIZATION IS   100.00%
 
 ..... DONE SETTING UP PCM CALCULATION .....
 STEP CPU TIME =     0.00 TOTAL CPU TIME =          9.0 (      0.1 MIN)
 TOTAL WALL CLOCK TIME=          9.0 SECONDS, CPU UTILIZATION IS   100.00%

          --------------------------
               R-AM1 SCF CALCULATION
          --------------------------
     DENSITY MATRIX CONV=  1.00E-05

 ITER EX DEM     TOTAL ENERGY        E CHANGE  DENSITY CHANGE    DIIS ERROR
   1  0  0      -62.0866140300   -62.0866140300   0.002158922   0.000000000
   2  1  0      -62.0866183819    -0.0000043519   0.001133564   0.000000000
   3  2  0      -62.0866195696    -0.0000011877   0.000600312   0.000000000
   4  3  0      -62.0866199069    -0.0000003374   0.000320042   0.000000000
   5  4  0      -62.0866200047    -0.0000000978   0.000171543   0.000000000
   6  5  0      -62.0866200335    -0.0000000288   0.000092353   0.000000000
   7  6  0      -62.0866200420    -0.0000000086   0.000049901   0.000000000
   8  7  0      -62.0866200446    -0.0000000025   0.000027044   0.000000000
   9  8  0      -62.0866200453    -0.0000000007   0.000014694   0.000000000
  10  9  0      -62.0866200455    -0.0000000002   0.000008000   0.000000000

          -----------------
          DENSITY CONVERGED
          -----------------
     TIME TO FORM FOCK OPERATORS=       0.1 SECONDS (       0.0 SEC/ITER)
     TIME TO SOLVE SCF EQUATIONS=       0.0 SECONDS (       0.0 SEC/ITER)

 FINAL R-AM1 ENERGY IS      -62.0866200455 AFTER  10 ITERATIONS

 HEAT OF FORMATION IS      -182.98773 KCAL/MOL
 
  
   PCM ASC=      0.0394025029
   GCAVP  =      0.0000000000
   GDISP  =      0.0000000000
   GREP   =      0.0000000000
 ...... END OF RHF CALCULATION ......
 STEP CPU TIME =     0.12 TOTAL CPU TIME =          9.1 (      0.2 MIN)
 TOTAL WALL CLOCK TIME=          9.1 SECONDS, CPU UTILIZATION IS   100.00%
 
 .... DONE WITH PCM CONTRIBUTION TO GRADIENT ....
 STEP CPU TIME =     0.01 TOTAL CPU TIME =          9.1 (      0.2 MIN)
 TOTAL WALL CLOCK TIME=          9.1 SECONDS, CPU UTILIZATION IS   100.00%
 STEP CPU TIME =     0.00 TOTAL CPU TIME =          9.1 (      0.2 MIN)
 TOTAL WALL CLOCK TIME=          9.1 SECONDS, CPU UTILIZATION IS   100.00%

 UNITS ARE HARTREE/BOHR    E'X               E'Y               E'Z 
    1 CL              -0.000038032      -0.000028066       0.000007102
    2 C               -0.000051205      -0.000031160       0.000057542
    3 C               -0.000081055       0.000074346       0.000052425
    4 O                0.000085911       0.000003286      -0.000154687
    5 H               -0.000011770      -0.000070938      -0.000029810
    6 H                0.000033214      -0.000006775       0.000036424
    7 H               -0.000026261       0.000013245       0.000006263
    8 O                0.000036017       0.000007037       0.000024456
    9 H                0.000022633       0.000009724       0.000022017
   10 H                0.000029008       0.000013392      -0.000012034
   11 O                0.000166387       0.000597098       0.000794640
   12 H                0.000069561      -0.000014609      -0.000556360
   13 H               -0.000234408      -0.000566581      -0.000247978
  $VIB   
          IVIB=   2 IATOM=  13 ICOORD=   1 E=      -62.0866200455
 -3.803229448E-05-2.806623010E-05 7.101853733E-06-5.120541441E-05-3.115971535E-05
  5.754173234E-05-8.105487992E-05 7.434630319E-05 5.242459783E-05 8.591136036E-05
  3.285501913E-06-1.546869062E-04-1.177043224E-05-7.093846833E-05-2.980954766E-05
  3.321428360E-05-6.774585870E-06 3.642449838E-05-2.626111659E-05 1.324520789E-05
  6.263196242E-06 3.601733729E-05 7.037446994E-06 2.445611286E-05 2.263299791E-05
  9.724013773E-06 2.201660050E-05 2.900848389E-05 1.339233724E-05-1.203401310E-05
  1.663867723E-04 5.970982002E-04 7.946396826E-04 6.956084353E-05-1.460907706E-05
 -5.563600144E-04-2.344079412E-04-5.665809345E-04-2.479777932E-04
 -3.643110693E-01 3.420189173E+00 7.173065765E-01
1   ATOM 13
                                        -------------------
   COORD  2                             NUCLEAR COORDINATES
                                        -------------------
     VIB  2

                       ATOM             X              Y              Z

                 1  CL               2.880774       0.521130       1.761640
                 2  C                5.308278      -0.128388      -0.392496
                 3  C                5.534573       1.894072      -2.363140
                 4  O                6.680673       1.514710      -4.359031
                 5  H                4.890403      -2.008004      -1.264775
                 6  H                7.113080      -0.249671       0.708326
                 7  H                4.647970       3.750256      -1.926160
                 8  O                8.522985      -2.939601      -7.958883
                 9  H                7.915684      -1.508058      -7.010373
                10  H                7.863622      -2.652344      -9.631102
                11  O                5.916392       0.881425      -9.768107
                12  H                6.652308       1.565260     -11.285217
                13  H                6.239441       2.156117      -8.517505

 MOPAC ONE- AND TWO-ELECTRON INTEGRALS REQUIRE      2933 WORDS.
 ...... END OF ONE- AND TWO-ELECTRON INTEGRALS......
 STEP CPU TIME =     0.00 TOTAL CPU TIME =          9.1 (      0.2 MIN)
 TOTAL WALL CLOCK TIME=          9.1 SECONDS, CPU UTILIZATION IS   100.00%
 ...... END OF ONE-ELECTRON INTEGRALS ......
 STEP CPU TIME =     0.00 TOTAL CPU TIME =          9.1 (      0.2 MIN)
 TOTAL WALL CLOCK TIME=          9.1 SECONDS, CPU UTILIZATION IS   100.00%

     ----------------------------
     INPUT FOR TESSERA DEFINITION
     ----------------------------
     NTSALL  =        60     MTHALL  =         4
     MTHAUT  =         0     AUTFRE  =    2.0000
     NTSFRZ  =        60     KEEPSM  =         0
     AREAKP  =   10.0000     BONDRY  =    1.0000
     AREATL  =    0.0100

     SPHERE     INITS       METHOD
          1        60       FIXPVA
          2        60       FIXPVA
          3        60       FIXPVA
          4        60       FIXPVA
          5        60       FIXPVA
          6        60       FIXPVA
          7        60       FIXPVA
          8        60       FIXPVA
          9        60       FIXPVA
         10        60       FIXPVA
         11        60       FIXPVA
         12        60       FIXPVA
         13        60       FIXPVA

     ------------------------------
      FIXPVA TESSELLATION FOR PCM
         PEIFENG SU AND HUI LI
     UNIVERSITY OF NEBRASKA-LINCOLN
     ------------------------------


     INPUT FOR CAVITY DEFINITION 
     ---------------------------
   ATOM               COORDINATES                RADIUS       EPS
      1      1.5244      0.2758      0.9322      1.8100     78.3900
      2      2.8090     -0.0679     -0.2077      1.7000     78.3900
      3      2.9288      1.0023     -1.2505      1.7000     78.3900
      4      3.5353      0.8015     -2.3067      1.5000     78.3900
      5      2.5879     -1.0626     -0.6693      1.2000     78.3900
      6      3.7641     -0.1321      0.3748      1.2000     78.3900
      7      2.4596      1.9845     -1.0193      1.2000     78.3900
      8      4.5102     -1.5556     -4.2117      1.5000     78.3900
      9      4.1888     -0.7980     -3.7097      1.2000     78.3900
     10      4.1612     -1.4036     -5.0966      1.2000     78.3900
     11      3.1308      0.4664     -5.1691      1.5000     78.3900
     12      3.5202      0.8283     -5.9719      1.2000     78.3900
     13      3.3018      1.1410     -4.5073      1.2000     78.3900

 MEMORY USED TO GENERATE CAVITY=    262582


 TOTAL NUMBER OF SPHERES=    13
 SPHERE           CENTER  (X,Y,Z) (A)               RADIUS (A)      AREA(A*A)
     1   1.524440000   0.275770000   0.932220000   2.172000000  38.490629521
     2   2.809020000  -0.067940000  -0.207700000   2.040000000   3.657223925
     3   2.928770000   1.002300000  -1.250520000   2.040000000  12.182037669
     4   3.535260000   0.801550000  -2.306700000   1.800000000   8.991648252
     5   2.587890000  -1.062590000  -0.669290000   1.440000000   7.103966586
     6   3.764080000  -0.132120000   0.374830000   1.440000000   8.266216870
     7   2.459600000   1.984550000  -1.019280000   1.440000000   7.030749145
     8   4.510170000  -1.555570000  -4.211660000   1.800000000  20.269614417
     9   4.188800000  -0.798030000  -3.709730000   1.440000000   0.594115893
    10   4.161250000  -1.403560000  -5.096560000   1.440000000   4.865725829
    11   3.130820000   0.466430000  -5.169060000   1.800000000  12.468657972
    12   3.520250000   0.828300000  -5.971880000   1.440000000   9.848259786
    13   3.301770000   1.140968228  -4.507270000   1.440000000   4.690141428

 TOTAL NUMBER OF TESSERAE=     272
 SURFACE AREA=   138.45898729(A**2)    CAVITY VOLUME=    119.31086548 (A**3)
 STEP CPU TIME =     0.01 TOTAL CPU TIME =          9.1 (      0.2 MIN)
 TOTAL WALL CLOCK TIME=          9.1 SECONDS, CPU UTILIZATION IS   100.00%

          THE SOLUTE IS ENCLOSED IN ONE CAVITY
 DONE CHECKING SEPARATION.
 STEP CPU TIME =     0.00 TOTAL CPU TIME =          9.1 (      0.2 MIN)
 TOTAL WALL CLOCK TIME=          9.1 SECONDS, CPU UTILIZATION IS   100.00%
 
 ..... DONE SETTING UP PCM CALCULATION .....
 STEP CPU TIME =     0.00 TOTAL CPU TIME =          9.1 (      0.2 MIN)
 TOTAL WALL CLOCK TIME=          9.1 SECONDS, CPU UTILIZATION IS   100.00%

          --------------------------
               R-AM1 SCF CALCULATION
          --------------------------
     DENSITY MATRIX CONV=  1.00E-05

 ITER EX DEM     TOTAL ENERGY        E CHANGE  DENSITY CHANGE    DIIS ERROR
   1  0  0      -62.0866052810   -62.0866052810   0.001227664   0.000000000
   2  1  0      -62.0866092499    -0.0000039689   0.000566353   0.000000000
   3  2  0      -62.0866098956    -0.0000006458   0.000288045   0.000000000
   4  3  0      -62.0866100388    -0.0000001431   0.000146883   0.000000000
   5  4  0      -62.0866100741    -0.0000000353   0.000075347   0.000000000
   6  5  0      -62.0866100833    -0.0000000093   0.000038931   0.000000000
   7  6  0      -62.0866100859    -0.0000000025   0.000020268   0.000000000
   8  7  0      -62.0866100866    -0.0000000007   0.000011053   0.000000000
   9  8  0      -62.0866100868    -0.0000000002   0.000006227   0.000000000

          -----------------
          DENSITY CONVERGED
          -----------------
     TIME TO FORM FOCK OPERATORS=       0.1 SECONDS (       0.0 SEC/ITER)
     TIME TO SOLVE SCF EQUATIONS=       0.0 SECONDS (       0.0 SEC/ITER)

 FINAL R-AM1 ENERGY IS      -62.0866100868 AFTER   9 ITERATIONS

 HEAT OF FORMATION IS      -182.98149 KCAL/MOL
 
  
   PCM ASC=      0.0394364966
   GCAVP  =      0.0000000000
   GDISP  =      0.0000000000
   GREP   =      0.0000000000
 ...... END OF RHF CALCULATION ......
 STEP CPU TIME =     0.09 TOTAL CPU TIME =          9.2 (      0.2 MIN)
 TOTAL WALL CLOCK TIME=          9.2 SECONDS, CPU UTILIZATION IS   100.00%
 
 .... DONE WITH PCM CONTRIBUTION TO GRADIENT ....
 STEP CPU TIME =     0.02 TOTAL CPU TIME =          9.2 (      0.2 MIN)
 TOTAL WALL CLOCK TIME=          9.2 SECONDS, CPU UTILIZATION IS   100.00%
 STEP CPU TIME =     0.00 TOTAL CPU TIME =          9.2 (      0.2 MIN)
 TOTAL WALL CLOCK TIME=          9.2 SECONDS, CPU UTILIZATION IS   100.00%

 UNITS ARE HARTREE/BOHR    E'X               E'Y               E'Z 
    1 CL              -0.000038875      -0.000028221       0.000008076
    2 C               -0.000050234      -0.000032004       0.000058070
    3 C               -0.000077654       0.000075139       0.000044162
    4 O                0.000080873       0.000012239      -0.000161571
    5 H               -0.000011944      -0.000070446      -0.000029483
    6 H                0.000032478      -0.000006830       0.000036473
    7 H               -0.000026840       0.000012120       0.000006757
    8 O                0.000034435       0.000000284       0.000018717
    9 H                0.000007932       0.000044875       0.000001668
   10 H                0.000035711       0.000015141      -0.000001155
   11 O                0.000602784       0.002289008       0.002345753
   12 H                0.000043959      -0.000029276      -0.000479215
   13 H               -0.000632624      -0.002282028      -0.001848253
  $VIB   
          IVIB=   2 IATOM=  13 ICOORD=   2 E=      -62.0866100868
 -3.887484644E-05-2.822054028E-05 8.076284452E-06-5.023430953E-05-3.200423842E-05
  5.806953767E-05-7.765350773E-05 7.513942931E-05 4.416174001E-05 8.087258263E-05
  1.223925253E-05-1.615714493E-04-1.194396091E-05-7.044619320E-05-2.948270754E-05
  3.247801952E-05-6.829791407E-06 3.647292585E-05-2.683994081E-05 1.211998384E-05
  6.757262380E-06 3.443498243E-05 2.835308813E-07 1.871701901E-05 7.932180332E-06
  4.487470083E-05 1.668474538E-06 3.571077377E-05 1.514071718E-05-1.154541575E-06
  6.027837756E-04 2.289007564E-03 2.345752845E-03 4.395853680E-05-2.927607415E-05
 -4.792148642E-04-6.326242856E-04-2.282028341E-03-1.848252526E-03
 -3.544587682E-01 3.413903282E+00 7.197163077E-01
1   ATOM 13
                                        -------------------
   COORD  3                             NUCLEAR COORDINATES
                                        -------------------
     VIB  2

                       ATOM             X              Y              Z

                 1  CL               2.880774       0.521130       1.761640
                 2  C                5.308278      -0.128388      -0.392496
                 3  C                5.534573       1.894072      -2.363140
                 4  O                6.680673       1.514710      -4.359031
                 5  H                4.890403      -2.008004      -1.264775
                 6  H                7.113080      -0.249671       0.708326
                 7  H                4.647970       3.750256      -1.926160
                 8  O                8.522985      -2.939601      -7.958883
                 9  H                7.915684      -1.508058      -7.010373
                10  H                7.863622      -2.652344      -9.631102
                11  O                5.916392       0.881425      -9.768107
                12  H                6.652308       1.565260     -11.285217
                13  H                6.239441       2.166117      -8.527505

 MOPAC ONE- AND TWO-ELECTRON INTEGRALS REQUIRE      2933 WORDS.
 ...... END OF ONE- AND TWO-ELECTRON INTEGRALS......
 STEP CPU TIME =     0.00 TOTAL CPU TIME =          9.2 (      0.2 MIN)
 TOTAL WALL CLOCK TIME=          9.2 SECONDS, CPU UTILIZATION IS   100.00%
 ...... END OF ONE-ELECTRON INTEGRALS ......
 STEP CPU TIME =     0.00 TOTAL CPU TIME =          9.2 (      0.2 MIN)
 TOTAL WALL CLOCK TIME=          9.2 SECONDS, CPU UTILIZATION IS   100.00%

     ----------------------------
     INPUT FOR TESSERA DEFINITION
     ----------------------------
     NTSALL  =        60     MTHALL  =         4
     MTHAUT  =         0     AUTFRE  =    2.0000
     NTSFRZ  =        60     KEEPSM  =         0
     AREAKP  =   10.0000     BONDRY  =    1.0000
     AREATL  =    0.0100

     SPHERE     INITS       METHOD
          1        60       FIXPVA
          2        60       FIXPVA
          3        60       FIXPVA
          4        60       FIXPVA
          5        60       FIXPVA
          6        60       FIXPVA
          7        60       FIXPVA
          8        60       FIXPVA
          9        60       FIXPVA
         10        60       FIXPVA
         11        60       FIXPVA
         12        60       FIXPVA
         13        60       FIXPVA

     ------------------------------
      FIXPVA TESSELLATION FOR PCM
         PEIFENG SU AND HUI LI
     UNIVERSITY OF NEBRASKA-LINCOLN
     ------------------------------


     INPUT FOR CAVITY DEFINITION 
     ---------------------------
   ATOM               COORDINATES                RADIUS       EPS
      1      1.5244      0.2758      0.9322      1.8100     78.3900
      2      2.8090     -0.0679     -0.2077      1.7000     78.3900
      3      2.9288      1.0023     -1.2505      1.7000     78.3900
      4      3.5353      0.8015     -2.3067      1.5000     78.3900
      5      2.5879     -1.0626     -0.6693      1.2000     78.3900
      6      3.7641     -0.1321      0.3748      1.2000     78.3900
      7      2.4596      1.9845     -1.0193      1.2000     78.3900
      8      4.5102     -1.5556     -4.2117      1.5000     78.3900
      9      4.1888     -0.7980     -3.7097      1.2000     78.3900
     10      4.1612     -1.4036     -5.0966      1.2000     78.3900
     11      3.1308      0.4664     -5.1691      1.5000     78.3900
     12      3.5202      0.8283     -5.9719      1.2000     78.3900
     13      3.3018      1.1463     -4.5126      1.2000     78.3900

 MEMORY USED TO GENERATE CAVITY=    262582


 TOTAL NUMBER OF SPHERES=    13
 SPHERE           CENTER  (X,Y,Z) (A)               RADIUS (A)      AREA(A*A)
     1   1.524440000   0.275770000   0.932220000   2.172000000  38.490629521
     2   2.809020000  -0.067940000  -0.207700000   2.040000000   3.657223925
     3   2.928770000   1.002300000  -1.250520000   2.040000000  12.181903574
     4   3.535260000   0.801550000  -2.306700000   1.800000000   8.989326984
     5   2.587890000  -1.062590000  -0.669290000   1.440000000   7.103966586
     6   3.764080000  -0.132120000   0.374830000   1.440000000   8.266216870
     7   2.459600000   1.984550000  -1.019280000   1.440000000   7.030749145
     8   4.510170000  -1.555570000  -4.211660000   1.800000000  20.269614417
     9   4.188800000  -0.798030000  -3.709730000   1.440000000   0.594469231
    10   4.161250000  -1.403560000  -5.096560000   1.440000000   4.865725829
    11   3.130820000   0.466430000  -5.169060000   1.800000000  12.429489038
    12   3.520250000   0.828300000  -5.971880000   1.440000000   9.842329958
    13   3.301770000   1.146260000  -4.512561772   1.440000000   4.778104860

 TOTAL NUMBER OF TESSERAE=     272
 SURFACE AREA=   138.49974994(A**2)    CAVITY VOLUME=    119.40893115 (A**3)
 STEP CPU TIME =     0.00 TOTAL CPU TIME =          9.2 (      0.2 MIN)
 TOTAL WALL CLOCK TIME=          9.2 SECONDS, CPU UTILIZATION IS   100.00%

          THE SOLUTE IS ENCLOSED IN ONE CAVITY
 DONE CHECKING SEPARATION.
 STEP CPU TIME =     0.00 TOTAL CPU TIME =          9.2 (      0.2 MIN)
 TOTAL WALL CLOCK TIME=          9.2 SECONDS, CPU UTILIZATION IS   100.00%
 
 ..... DONE SETTING UP PCM CALCULATION .....
 STEP CPU TIME =     0.00 TOTAL CPU TIME =          9.2 (      0.2 MIN)
 TOTAL WALL CLOCK TIME=          9.2 SECONDS, CPU UTILIZATION IS   100.00%

          --------------------------
               R-AM1 SCF CALCULATION
          --------------------------
     DENSITY MATRIX CONV=  1.00E-05

 ITER EX DEM     TOTAL ENERGY        E CHANGE  DENSITY CHANGE    DIIS ERROR
   1  0  0      -62.0866050653   -62.0866050653   0.000898524   0.000000000
   2  1  0      -62.0866084314    -0.0000033661   0.000359923   0.000000000
   3  2  0      -62.0866087862    -0.0000003548   0.000169306   0.000000000
   4  3  0      -62.0866088468    -0.0000000606   0.000081138   0.000000000
   5  4  0      -62.0866088596    -0.0000000128   0.000039268   0.000000000
   6  5  0      -62.0866088626    -0.0000000030   0.000019983   0.000000000
   7  6  0      -62.0866088633    -0.0000000007   0.000010303   0.000000000
   8  7  0      -62.0866088636    -0.0000000003   0.000005371   0.000000000

          -----------------
          DENSITY CONVERGED
          -----------------
     TIME TO FORM FOCK OPERATORS=       0.1 SECONDS (       0.0 SEC/ITER)
     TIME TO SOLVE SCF EQUATIONS=       0.0 SECONDS (       0.0 SEC/ITER)

 FINAL R-AM1 ENERGY IS      -62.0866088636 AFTER   8 ITERATIONS

 HEAT OF FORMATION IS      -182.98072 KCAL/MOL
 
  
   PCM ASC=      0.0394049278
   GCAVP  =      0.0000000000
   GDISP  =      0.0000000000
   GREP   =      0.0000000000
 ...... END OF RHF CALCULATION ......
 STEP CPU TIME =     0.10 TOTAL CPU TIME =          9.3 (      0.2 MIN)
 TOTAL WALL CLOCK TIME=          9.3 SECONDS, CPU UTILIZATION IS   100.00%
 
 .... DONE WITH PCM CONTRIBUTION TO GRADIENT ....
 STEP CPU TIME =     0.00 TOTAL CPU TIME =          9.3 (      0.2 MIN)
 TOTAL WALL CLOCK TIME=          9.3 SECONDS, CPU UTILIZATION IS   100.00%
 STEP CPU TIME =     0.00 TOTAL CPU TIME =          9.3 (      0.2 MIN)
 TOTAL WALL CLOCK TIME=          9.3 SECONDS, CPU UTILIZATION IS   100.00%

 UNITS ARE HARTREE/BOHR    E'X               E'Y               E'Z 
    1 CL              -0.000037176      -0.000027770       0.000006146
    2 C               -0.000049791      -0.000030471       0.000057112
    3 C               -0.000092328       0.000079785       0.000064654
    4 O                0.000094669      -0.000007721      -0.000128813
    5 H               -0.000011697      -0.000071364      -0.000030213
    6 H                0.000033928      -0.000006967       0.000036579
    7 H               -0.000026794       0.000014385       0.000005087
    8 O                0.000034897       0.000004710       0.000024446
    9 H                0.000021595       0.000016621       0.000013502
   10 H                0.000027438       0.000020318      -0.000010827
   11 O                0.000124672       0.001315913       0.002387043
   12 H                0.000178002       0.000521362       0.000087768
   13 H               -0.000297415      -0.001828800      -0.002512483
  $VIB   
          IVIB=   2 IATOM=  13 ICOORD=   3 E=      -62.0866088636
 -3.717629405E-05-2.777008329E-05 6.146036024E-06-4.979056037E-05-3.047055113E-05
  5.711207780E-05-9.232840342E-05 7.978450205E-05 6.465420360E-05 9.466869176E-05
 -7.721422416E-06-1.288134778E-04-1.169731959E-05-7.136440800E-05-3.021300609E-05
  3.392759300E-05-6.966551602E-06 3.657888617E-05-2.679367905E-05 1.438467003E-05
  5.086755411E-06 3.489710214E-05 4.709860022E-06 2.444558572E-05 2.159534472E-05
  1.662083408E-05 1.350240716E-05 2.743785870E-05 2.031812345E-05-1.082664733E-05
  1.246723344E-04 1.315912715E-03 2.387042508E-03 1.780024467E-04 5.213619939E-04
  8.776750459E-05-2.974151149E-04-1.828799682E-03-2.512482833E-03
 -3.560193116E-01 3.420142389E+00 7.111241559E-01
 ...... END OF NUMERICAL HESSIAN CALCULATION ......
 STEP CPU TIME =     0.00 TOTAL CPU TIME =          9.3 (      0.2 MIN)
 TOTAL WALL CLOCK TIME=          9.3 SECONDS, CPU UTILIZATION IS   100.00%

          ---------------
          ENERGY GRADIENT
          ---------------

 UNITS ARE HARTREE/BOHR    E'X               E'Y               E'Z 
    1 CL              -0.000038093      -0.000028450       0.000008096
    2 C               -0.000052253      -0.000031557       0.000056871
    3 C               -0.000079591       0.000073539       0.000050710
    4 O                0.000083747       0.000007255      -0.000153772
    5 H               -0.000011777      -0.000070904      -0.000029560
    6 H                0.000032872      -0.000006586       0.000036468
    7 H               -0.000025468       0.000013237       0.000006850
    8 O                0.000033586       0.000005987       0.000021558
    9 H                0.000019440       0.000020825       0.000014074
   10 H                0.000031504       0.000014202      -0.000007397
   11 O               -0.000134791      -0.000249312       0.000331940
   12 H                0.000126844       0.000182910      -0.000387822
   13 H                0.000013979       0.000068856       0.000051986

          -------------------------------
          CARTESIAN FORCE CONSTANT MATRIX
          -------------------------------

                                   1                          2
                               CL                         C         
                          X        Y        Z        X        Y        Z
  1   CL           X 0.157390-0.033101-0.123529-0.111038 0.023129 0.072995
                   Y-0.033101 0.034721 0.026124 0.024063-0.034051-0.022778
                   Z-0.123529 0.026124 0.135019 0.073784-0.021506-0.088750
  2   C            X-0.111038 0.024063 0.073784 0.421876 0.028682 0.029176
                   Y 0.023129-0.034051-0.021506 0.028682 0.504958-0.034314
                   Z 0.072995-0.022778-0.088750 0.029176-0.034314 0.483207
  3   C            X-0.013352-0.011508 0.028588-0.071978-0.005394-0.006412
                   Y 0.000201 0.004127 0.000127-0.017174-0.182034 0.102390
                   Z 0.019035 0.011446-0.027726 0.006595 0.088913-0.146557
  4   O            X 0.000158-0.000226 0.000026 0.006216-0.011314 0.032613
                   Y-0.002254-0.001173 0.003909-0.011748 0.005197 0.031591
                   Z 0.002381 0.003238-0.004801 0.029824 0.027845-0.070816
  5   H            X-0.005599 0.015979 0.017306-0.045272-0.048176-0.024420
                   Y 0.004730-0.005072-0.009072-0.046595-0.232997-0.092917
                   Z 0.009867-0.016036-0.013668-0.023575-0.090509-0.078321
  6   H            X-0.027719 0.005061 0.004196-0.213789 0.007251-0.109819
                   Y 0.008044 0.002745-0.000927 0.011396-0.036338 0.007964
                   Z 0.018966-0.003040 0.000917-0.116160 0.007567-0.102196
  7   H            X 0.000179-0.000213-0.000256 0.013879 0.005727 0.005736
                   Y-0.000717-0.001211 0.001309 0.011221-0.024886 0.008093
                   Z 0.000410 0.001037-0.000990 0.000201 0.022088 0.003258
  8   O            X 0.000002-0.000008-0.000010-0.000008-0.000010 0.000021
                   Y 0.000019 0.000000-0.000020-0.000042 0.000006-0.000024
                   Z 0.000051 0.000007-0.000048-0.000068 0.000019-0.000082
  9   H            X 0.000074-0.000004-0.000065-0.000114 0.000024-0.000017
                   Y-0.000082-0.000004 0.000083 0.000150-0.000054 0.000006
                   Z-0.000061-0.000004 0.000059 0.000190-0.000043 0.000036
 10   H            X-0.000005 0.000002 0.000008 0.000017 0.000001 0.000003
                   Y-0.000007 0.000000 0.000008-0.000003-0.000000 0.000003
                   Z-0.000018-0.000005 0.000017 0.000028-0.000011 0.000019
 11   O            X 0.000025 0.000003-0.000034-0.000041 0.000016-0.000024
                   Y-0.000008-0.000000 0.000006 0.000045-0.000012 0.000000
                   Z 0.000081 0.000022-0.000085 0.000022 0.000052-0.000052
 12   H            X-0.000002 0.000000 0.000002 0.000012-0.000005 0.000003
                   Y 0.000002 0.000002-0.000004 0.000013-0.000000 0.000000
                   Z-0.000016-0.000005 0.000016 0.000000-0.000011 0.000012
 13   H            X-0.000029-0.000007 0.000040 0.000035-0.000014 0.000043
                   Y 0.000056 0.000009-0.000057-0.000065 0.000070-0.000011
                   Z-0.000115-0.000037 0.000138-0.000118-0.000087 0.000082

                                   3                          4
                               C                          O         
                          X        Y        Z        X        Y        Z
  3   C            X 0.457702-0.157709-0.407667-0.284191 0.079641 0.393776
                   Y-0.157709 0.539541 0.061478 0.088595-0.086252-0.150266
                   Z-0.407667 0.061478 0.963650 0.388035-0.134611-0.729825
  4   O            X-0.284191 0.088595 0.388035 0.285009-0.095143-0.456004
                   Y 0.079641-0.086252-0.134611-0.095143 0.095051 0.135645
                   Z 0.393776-0.150266-0.729825-0.456004 0.135645 0.839683
  5   H            X 0.004649-0.004414-0.001129-0.000559 0.000360 0.000478
                   Y-0.008356-0.034484 0.004676 0.000801 0.000271-0.000766
                   Z 0.003277 0.018047 0.008619 0.000546-0.000236-0.001831
  6   H            X 0.001760 0.007902-0.013794-0.001793 0.000036 0.002913
                   Y 0.016329-0.003792 0.018829-0.001252-0.000995 0.000857
                   Z-0.018315 0.011827-0.018140 0.000896 0.000335-0.000459
  7   H            X-0.094313 0.082626 0.008234-0.004047 0.027879 0.027194
                   Y 0.086949-0.237413-0.050314 0.017338-0.008204-0.014570
                   Z 0.005749-0.043429-0.048482 0.034640-0.034672-0.024276
  8   O            X 0.000059 0.000028-0.000123-0.000095 0.000385 0.000399
                   Y-0.000131-0.000148 0.000343 0.000468-0.000871-0.001224
                   Z-0.000320-0.000056 0.000736 0.000560-0.001179-0.001497
  9   H            X-0.000419-0.000058 0.000827-0.000532 0.000638-0.000442
                   Y 0.000483 0.000535-0.001189 0.000417-0.002701-0.000902
                   Z 0.000490 0.000371-0.001273-0.000087-0.002063-0.001598
 10   H            X 0.000010 0.000026-0.000046-0.000072 0.000078 0.000112
                   Y 0.000033-0.000042-0.000049 0.000018 0.000009 0.000115
                   Z 0.000128-0.000014-0.000303-0.000120 0.000356 0.000529
 11   O            X-0.000097-0.000037 0.000235 0.000172-0.000225-0.000740
                   Y-0.000065 0.000084-0.000132-0.000084 0.000186-0.000657
                   Z-0.000681 0.000183 0.000848 0.000087-0.000698-0.003033
 12   H            X-0.000008 0.000017-0.000038 0.000011 0.000032 0.000015
                   Y-0.000040 0.000024-0.000009 0.000063 0.000019-0.000139
                   Z 0.000116-0.000026-0.000250-0.000041 0.000116 0.000514
 13   H            X 0.000095-0.000035-0.000187-0.000194 0.000339 0.000130
                   Y-0.000243-0.000115 0.000637 0.000313-0.000559 0.000830
                   Z 0.001239-0.000589-0.001420-0.001093 0.001470-0.002512

                                   5                          6
                               H                          H         
                          X        Y        Z        X        Y        Z
  5   H            X 0.055555 0.055404 0.021791-0.008534-0.019426-0.013986
                   Y 0.055404 0.274593 0.102886-0.006554-0.001773-0.006032
                   Z 0.021791 0.102886 0.093738-0.011024-0.014955-0.006458
  6   H            X-0.008534-0.006554-0.011024 0.250655-0.013379 0.127491
                   Y-0.019426-0.001773-0.014955-0.013379 0.041472-0.011373
                   Z-0.013986-0.006032-0.006458 0.127491-0.011373 0.126259
  7   H            X-0.000175 0.000558-0.000904-0.000622-0.001670 0.001097
                   Y 0.000261-0.000502 0.000856-0.000305-0.001301 0.000713
                   Z-0.000008 0.001217-0.002053 0.000101-0.000375 0.000105
  8   O            X-0.000021 0.000068 0.000085 0.000001-0.000003-0.000001
                   Y 0.000003-0.000024-0.000033 0.000028 0.000001-0.000003
                   Z 0.000076-0.000172-0.000152 0.000056 0.000004 0.000011
  9   H            X 0.000011-0.000072-0.000063 0.000045 0.000008 0.000009
                   Y 0.000024 0.000009-0.000031-0.000076-0.000006 0.000000
                   Z-0.000077 0.000111 0.000123-0.000081-0.000005 0.000002
 10   H            X-0.000004-0.000001-0.000005-0.000006-0.000000 0.000000
                   Y-0.000007 0.000003 0.000004-0.000005 0.000001-0.000000
                   Z-0.000009 0.000033 0.000021-0.000022-0.000002-0.000001
 11   O            X 0.000012-0.000017-0.000005 0.000023 0.000002-0.000001
                   Y-0.000004 0.000018 0.000014-0.000009-0.000004 0.000003
                   Z 0.000010-0.000056-0.000044 0.000074-0.000007 0.000006
 12   H            X-0.000002 0.000002 0.000000-0.000003-0.000001 0.000001
                   Y 0.000001-0.000001-0.000002 0.000002-0.000001 0.000001
                   Z-0.000003 0.000013 0.000010-0.000016 0.000001-0.000000
 13   H            X-0.000008 0.000016 0.000006-0.000024-0.000004 0.000002
                   Y 0.000010-0.000034-0.000026 0.000049 0.000002-0.000003
                   Z-0.000015 0.000058 0.000048-0.000096 0.000017-0.000014

                                   7                          8
                               H                          O         
                          X        Y        Z        X        Y        Z
  7   H            X 0.085101-0.114782-0.041007-0.000020 0.000044 0.000072
                   Y-0.114782 0.273573 0.054063-0.000012 0.000040 0.000061
                   Z-0.041007 0.054063 0.072335 0.000008-0.000053-0.000085
  8   O            X-0.000020-0.000012 0.000008 0.143326-0.186855 0.089557
                   Y 0.000044 0.000040-0.000053-0.186855 0.344301 0.081573
                   Z 0.000072 0.000061-0.000085 0.089557 0.081573 0.487327
  9   H            X 0.000102 0.000087-0.000053-0.067869 0.135817 0.061657
                   Y-0.000137-0.000137 0.000177 0.124061-0.280210-0.162774
                   Z-0.000160-0.000114 0.000153 0.037110-0.123448-0.137120
 10   H            X-0.000009-0.000006 0.000008-0.075002 0.049105-0.150554
                   Y 0.000006-0.000006 0.000003 0.060409-0.061743 0.080376
                   Z-0.000027-0.000027 0.000030-0.126138 0.041359-0.350297
 11   O            X 0.000023 0.000031-0.000025-0.000015 0.001332-0.000828
                   Y-0.000028-0.000014-0.000000 0.001906-0.002209 0.002216
                   Z 0.000025 0.000116-0.000105-0.000727 0.001761 0.001255
 12   H            X-0.000005-0.000003 0.000001-0.000235 0.000241 0.000065
                   Y-0.000005 0.000003-0.000002 0.000056 0.000230-0.000331
                   Z-0.000006-0.000025 0.000027 0.000032-0.000316 0.000206
 13   H            X-0.000020-0.000035 0.000011-0.000247-0.000096-0.000291
                   Y 0.000039 0.000078-0.000037-0.000088 0.000580 0.000280
                   Z 0.000041-0.000148 0.000132-0.000135 0.000138-0.000292

                                   9                         10
                               H                          H         
                          X        Y        Z        X        Y        Z
  9   H            X 0.060388-0.119379-0.052053 0.010717-0.019722-0.008236
                   Y-0.119379 0.275970 0.168415-0.007672 0.010894-0.005662
                   Z-0.052053 0.168415 0.182471 0.017479-0.047444-0.039336
 10   H            X 0.010717-0.007672 0.017479 0.067024-0.044992 0.133591
                   Y-0.019722 0.010894-0.047444-0.044992 0.059401-0.034431
                   Z-0.008236-0.005662-0.039336 0.133591-0.034431 0.390116
 11   O            X-0.002316 0.001436-0.001824-0.002911 0.003681 0.000422
                   Y 0.002047-0.002156 0.002942 0.003892-0.007393-0.001464
                   Z-0.001328 0.001198-0.003232-0.000835 0.001081-0.000955
 12   H            X 0.000287-0.000295-0.000146 0.000055 0.000544-0.000080
                   Y-0.000477 0.000293 0.000030-0.000003-0.001024 0.000484
                   Z-0.000048 0.000237-0.000326-0.000225 0.000926-0.000166
 13   H            X-0.000314 0.001103-0.000792 0.000251 0.000078 0.000463
                   Y 0.001143-0.002393 0.001230-0.000420-0.000094-0.000619
                   Z-0.000212 0.000412 0.000062 0.000408-0.000618 0.000343

                                  11                         12
                               O                          H         
                          X        Y        Z        X        Y        Z
 11   O            X 0.116174 0.161749-0.095862-0.080482-0.094682 0.123982
                   Y 0.161749 0.388575 0.052694-0.084181-0.123702 0.099031
                   Z-0.095862 0.052694 0.502741 0.146008 0.142650-0.292741
 12   H            X-0.080482-0.084181 0.146008 0.074596 0.075373-0.140595
                   Y-0.094682-0.123702 0.142650 0.075373 0.103109-0.108974
                   Z 0.123982 0.099031-0.292741-0.140595-0.108974 0.340041
 13   H            X-0.030707-0.085201-0.046906 0.005846 0.019666 0.016837
                   Y-0.073173-0.253443-0.198969 0.008214 0.021080 0.009027
                   Z-0.025402-0.154597-0.204653-0.005173-0.033718-0.047318

                                  13
                               H         
                          X        Y        Z
 13   H            X 0.025385 0.064136 0.030686
                   Y 0.064136 0.234858 0.187677
                   Z 0.030686 0.187677 0.255430

          ------------------------          ----------------
          DIPOLE DERIVATIVE TENSOR          (DEBYE/ANGSTROM)
          ------------------------          ----------------

        ATOM                 MU-X           MU-Y           MU-Z
     CL         D/DX    -0.190233487   -0.066936904   -0.268337696
                D/DY    -0.041878738   -0.467291780    0.006580042
                D/DZ    -0.282818095    0.060692713   -0.189377760
     C          D/DX    -1.385051674    0.087559624    0.531316914
                D/DY     0.018154443   -1.087072858    0.390052822
                D/DZ     0.589157136    0.289942743   -1.670163306
     C          D/DX     1.484540879   -0.150658944    0.487653468
                D/DY    -0.026232676    1.357048170    0.432380112
                D/DZ     0.346016277    0.719522856    0.474393797
     O          D/DX    -1.760804065    0.082507904   -0.355238930
                D/DY    -0.059818572   -1.614754091   -0.144716792
                D/DZ    -0.209214759   -0.371795136   -1.069705924
     H          D/DX     0.914308970   -0.268467649   -0.035969755
                D/DY    -0.173740562    0.389409919   -0.344321628
                D/DZ     0.020561893   -0.353005911    0.937262591
     H          D/DX     0.477538926    0.090823040   -0.306548454
                D/DY     0.048827734    1.160032818   -0.051981187
                D/DZ    -0.428499963   -0.023848367    0.720145090
     H          D/DX     0.485846874    0.220527845   -0.056037485
                D/DY     0.230956277    0.295565481   -0.278574750
                D/DZ    -0.045332674   -0.306953222    0.848720311
     O          D/DX    -2.862697338   -0.733996668    0.342871677
                D/DY    -0.740583880   -2.147727858    0.162095935
                D/DZ     0.340061557    0.155581372   -1.885647963
     H          D/DX     1.413628713    0.517716748    0.167615511
                D/DY     0.451922408    0.733756810   -0.497598589
                D/DZ     0.016412434   -0.235758604    1.202927895
     H          D/DX     1.386669934    0.239963956   -0.509450065
                D/DY     0.310723509    1.325856658    0.334995658
                D/DZ    -0.349700983    0.082033126    0.626488994
     O          D/DX    -2.954280748    0.651365599   -0.313840181
                D/DY     0.646240906   -1.957630619    0.129691608
                D/DZ    -0.328352152    0.127443277   -1.835923977
     H          D/DX     1.419978001   -0.316232639    0.459895719
                D/DY    -0.374744722    1.177720843    0.457348205
                D/DZ     0.328027374    0.201654668    0.814186085
     H          D/DX     1.570093460   -0.352903975   -0.141743600
                D/DY    -0.287738823    0.834144675   -0.593295490
                D/DZ     0.005475383   -0.342370902    1.025875550

          --------------------------------------------------------
          NORMAL COORDINATE ANALYSIS IN THE HARMONIC APPROXIMATION
          --------------------------------------------------------

          ATOMIC WEIGHTS (AMU)

    1     CL               34.96885
    2     C                12.00000
    3     C                12.00000
    4     O                15.99491
    5     H                 1.00782
    6     H                 1.00782
    7     H                 1.00782
    8     O                15.99491
    9     H                 1.00782
   10     H                 1.00782
   11     O                15.99491
   12     H                 1.00782
   13     H                 1.00782

 MODES    1 TO    6 ARE TAKEN AS ROTATIONS AND TRANSLATIONS.

 ANALYZING SYMMETRY OF NORMAL MODES...

     FREQUENCIES IN CM**-1, IR INTENSITIES IN DEBYE**2/AMU-ANGSTROM**2,
     REDUCED MASSES IN AMU.

                            1           2           3           4           5
       FREQUENCY:        10.82        4.52        2.21        0.32       10.61  
        SYMMETRY:         A           A           A           A           A   
    REDUCED MASS:      9.35484     9.30583     8.65242     9.33438     5.25241
    IR INTENSITY:      0.03085     0.01699     0.00070     0.00245     0.08129

  1   CL           X -0.02572467  0.09082021  0.00236720  0.00781926 -0.01410490
                   Y  0.10062642 -0.00873182 -0.00909985  0.11002922 -0.01824991
                   Z  0.00200834 -0.00951132  0.09015272  0.00468938  0.00333515
  2   C            X -0.01048426  0.09805612  0.00633133  0.01478659 -0.00709567
                   Y  0.02249993 -0.00162672 -0.00262084  0.09920038 -0.03244861
                   Z  0.04287524 -0.00357816  0.09264432  0.01579871  0.01552630
  3   C            X  0.02463578  0.09525423  0.00333569  0.01779566  0.00403003
                   Y -0.03262308 -0.00187354 -0.00122597  0.08687676 -0.04152122
                   Z -0.00989479 -0.00416593  0.09372873  0.00345799  0.00740790
  4   O            X  0.00585630  0.09567639  0.00273760  0.01249029  0.00135787
                   Y -0.10994526 -0.00072105  0.00129878  0.07110194 -0.05608796
                   Z -0.00590730 -0.00414172  0.09290812  0.00343284  0.00871712
  5   H            X -0.01703927  0.10628500  0.01165158  0.01956768 -0.00702771
                   Y  0.00178386 -0.00355643 -0.00326174  0.09294906 -0.03572161
                   Z  0.09059934 -0.00338968  0.09146753  0.02693020  0.02257042
  6   H            X -0.02162411  0.09599519  0.00548208  0.01185993 -0.01138523
                   Y  0.03956455  0.00534366  0.00133833  0.10900944 -0.03023532
                   Z  0.06309192  0.00052084  0.09443600  0.02165378  0.02285551
  7   H            X  0.06949950  0.09274010  0.00148333  0.02533116  0.01471010
                   Y -0.00108466 -0.00299389 -0.00247614  0.09259872 -0.03473772
                   Z -0.05265917 -0.00443713  0.09529017 -0.00550005  0.00020039
  8   O            X -0.00885470  0.11432608 -0.00067108  0.01228463  0.01334729
                   Y -0.10866692 -0.00084526 -0.00633657  0.07549583 -0.01573494
                   Z -0.01147076  0.00248805  0.10074125 -0.00142269 -0.03050352
  9   H            X  0.00661173  0.10796024 -0.00323526  0.01142893  0.01675328
                   Y -0.10209777  0.00090732 -0.00606672  0.07315890 -0.02964480
                   Z -0.01163793 -0.00413969  0.09868891  0.00150534 -0.00754248
 10   H            X -0.00659051  0.07731235  0.01400182  0.01410960  0.08753290
                   Y -0.10206079 -0.03351744 -0.00056172  0.07978266  0.05801192
                   Z -0.01122876  0.01150321  0.09594191 -0.00141499 -0.04714285
 11   O            X  0.02074060  0.03781181  0.00675128  0.02100322  0.18281599
                   Y -0.08575379 -0.05485095 -0.00499416  0.08387766  0.11068561
                   Z -0.00497935  0.00290045  0.09301356  0.00282296 -0.01161607
 12   H            X  0.02533125  0.03530253  0.00119417  0.02195853  0.18546458
                   Y -0.08575494 -0.04932917 -0.00401138  0.08247875  0.10262075
                   Z -0.00272897  0.00423336  0.09077974  0.00264008 -0.01401059
 13   H            X  0.02424822  0.00536541  0.00575187  0.02928767  0.25595776
                   Y -0.08940574 -0.04236197 -0.00311327  0.08056471  0.07991941
                   Z -0.00203988 -0.00170956  0.09131248  0.00414181  0.00150021

 TRANS. SAYVETZ    X -0.36489291  9.98440700  0.37643618  1.53122315  3.17556027
                   Y -1.81270257 -1.37622377 -0.54312785 10.38227476 -0.79313569
                   Z  0.18236094 -0.40298544 10.63722608  0.52271507 -0.16417077
               TOTAL  1.85803470 10.08686136 10.65773291 10.50759271  3.27722433

   ROT. SAYVETZ    X-39.94976603 -5.47311402  0.19767433 -6.05929103 17.62194140
                   Y -5.59468421  4.04395998 -0.78367945 -1.34357195-24.60459323
                   Z-19.44202265  1.90806445  0.28669424 -3.21161611 -0.80219848
               TOTAL 44.78031422  7.06748182  0.85756761  6.98818084 30.27478075

                            6           7           8           9          10
       FREQUENCY:        16.26       20.77       25.38       45.49       79.25  
        SYMMETRY:         A           A           A           A           A   
    REDUCED MASS:     10.71244     8.00168     6.55037     3.26469     1.12557
    IR INTENSITY:      0.05515     0.05783     0.09430     0.23881     0.44035

  1   CL           X  0.09654461  0.01521817  0.04785653  0.01033507 -0.00932803
                   Y  0.00768477 -0.00821110  0.02557857  0.03786394 -0.00253943
                   Z  0.05494443 -0.02814851  0.07370105  0.00020248  0.00895883
  2   C            X  0.04647402  0.01434458 -0.06928680 -0.10863242 -0.00883192
                   Y -0.01194399  0.03006581 -0.02480713 -0.08572349 -0.00832007
                   Z  0.00447477 -0.04057809 -0.04303249 -0.09569492  0.01069198
  3   C            X  0.01542533 -0.00161752 -0.08893731  0.01681999  0.00996106
                   Y -0.01971654  0.05318522 -0.00939013 -0.02733790 -0.00091733
                   Z -0.00704744 -0.01855262 -0.02927472 -0.02080654  0.02024113
  4   O            X -0.01364860  0.00471564 -0.09254410  0.11819149  0.03168702
                   Y -0.02753019  0.08507325  0.01135000  0.02129881  0.00922829
                   Z -0.02229037 -0.02104748 -0.03537199  0.02782198  0.03068764
  5   H            X  0.01712023  0.02324866 -0.16928757 -0.29848224 -0.02067324
                   Y -0.01209801  0.03748856  0.00072147 -0.01122425 -0.00101152
                   Z  0.01874936 -0.06078364 -0.05020423 -0.16496429  0.00084538
  6   H            X  0.06908498  0.01738084 -0.02531968 -0.08819492 -0.01222316
                   Y -0.01993709  0.02781391 -0.10248392 -0.29864966 -0.02697906
                   Z -0.03379220 -0.04580822 -0.12390741 -0.15156573  0.01424188
  7   H            X  0.01936560 -0.01952831 -0.10145700  0.01014710  0.00211402
                   Y -0.01891711  0.04020729 -0.01857337 -0.03172939 -0.00401567
                   Z -0.00274963  0.00001403 -0.01560748 -0.01488196  0.01807205
  8   O            X -0.13614580 -0.09817320  0.07994444 -0.01698719 -0.02077954
                   Y -0.03708809 -0.08143453  0.02596153 -0.01110907  0.01271551
                   Z -0.06220835  0.13177127  0.02189806  0.01492417 -0.04000829
  9   H            X -0.09247863 -0.08751246  0.02619051  0.02093141  0.23257704
                   Y -0.03373389 -0.04068924  0.02596511 -0.00647624  0.18504215
                   Z -0.03948809  0.07720505 -0.01228377  0.03210241 -0.13578757
 10   H            X -0.12289091  0.01465049  0.10218780 -0.03833277 -0.41973302
                   Y  0.01215583 -0.07223048 -0.01824671  0.00880522 -0.26163981
                   Z -0.05903587  0.08885244  0.00561376  0.02670073  0.07117236
 11   O            X -0.03597767  0.08505744  0.03988827 -0.00907714  0.01800170
                   Y  0.05760538 -0.03853555 -0.04952418  0.02403267 -0.00257645
                   Z -0.01778670 -0.03795749 -0.06418048  0.06564147 -0.03827471
 12   H            X -0.05638835  0.15016839  0.10207874 -0.06780111  0.50797372
                   Y  0.04690917 -0.04790349 -0.03915523  0.01515903  0.01139407
                   Z -0.03260059 -0.01078183 -0.02927976  0.03309565  0.20544048
 13   H            X  0.04658831  0.01522194 -0.06878123  0.06146576 -0.46789625
                   Y  0.03388487 -0.02253791 -0.02959704  0.02042384  0.02790690
                   Z -0.01451169 -0.03659319 -0.05672977  0.05103967  0.05538861

 TRANS. SAYVETZ    X  1.02690390  0.66504620  0.07583767  0.32982294 -0.02949380
                   Y -0.21504105  0.07524742  0.10595716  0.20863854  0.04028424
                   Z  0.08971793 -0.51779990  0.18287079  0.15276492  0.15436159
               TOTAL  1.05300692  0.84620645  0.22454398  0.41910659  0.16223503

   ROT. SAYVETZ    X  5.66149366-18.44718403 -8.78450133  1.06543192  4.14225668
                   Y 43.48376716 -8.07349540  1.65870633 -4.15027402 -0.29928559
                   Z-10.43871568 -8.43130295  5.50211336 -8.58983516 -1.82879604
               TOTAL 45.07612785 21.83040989 10.49723876  9.59922850  4.53788026

                           11          12          13          14          15
       FREQUENCY:       100.20      115.95      136.42      158.27      232.87  
        SYMMETRY:         A           A           A           A           A   
    REDUCED MASS:      5.15674     4.59567     1.10531     2.45225     2.35417
    IR INTENSITY:      0.03774     0.01900     0.27196     0.24606     1.05992

  1   CL           X  0.01519106  0.01994774 -0.00128067 -0.00388102  0.00218467
                   Y -0.00822491  0.01643718 -0.00180500 -0.00547891  0.00255401
                   Z -0.00648309 -0.03414964  0.00183578  0.02141610 -0.00376524
  2   C            X  0.00863252  0.02799540 -0.00604016  0.01303002  0.00327672
                   Y  0.04140895 -0.01869243 -0.00044235  0.04718592 -0.00295813
                   Z -0.02749327 -0.01302633 -0.00375691  0.02309887  0.00001167
  3   C            X -0.06496559 -0.00203682  0.01300258 -0.12500386 -0.00463566
                   Y  0.02866538 -0.06264336  0.01641372 -0.04879465 -0.00703219
                   Z -0.04878072 -0.06039852  0.01546314 -0.09097147 -0.00440409
  4   O            X -0.05239820 -0.03090759  0.00723634  0.11949430  0.00609102
                   Y  0.04045773 -0.10360160  0.02124365  0.00076054 -0.00311838
                   Z -0.04358144 -0.06822460  0.01093974  0.03947741  0.00104303
  5   H            X  0.05045223  0.04939784 -0.02164971  0.12591465  0.00792259
                   Y  0.02261922 -0.04619081  0.01193663 -0.02580255 -0.00680426
                   Z -0.00772731  0.03616361 -0.02307238  0.12450443  0.00581432
  6   H            X  0.02322593  0.02956399 -0.00740260  0.02921723  0.00389759
                   Y  0.09964622  0.03225442 -0.02765509  0.22142215  0.00496256
                   Z -0.04549384 -0.01042986 -0.00434569  0.01513211 -0.00008652
  7   H            X -0.12187322  0.00553398  0.03001893 -0.41880282 -0.01841824
                   Y  0.00537344 -0.05236687  0.02050449 -0.14488133 -0.01154155
                   Z -0.06529119 -0.08694194  0.03105944 -0.26666080 -0.01206934
  8   O            X  0.03162695 -0.00968263 -0.01588803 -0.00849975 -0.05216864
                   Y -0.07667975  0.06687916 -0.02772553  0.00253068  0.13103858
                   Z -0.05988117  0.11851473 -0.05272709  0.00338310 -0.04639649
  9   H            X  0.15754148 -0.05493077 -0.30256169 -0.01449905 -0.44729756
                   Y -0.03725660  0.07811902 -0.15989101  0.00076507 -0.09515334
                   Z -0.03620905  0.07007656 -0.03350277  0.00150313  0.03736644
 10   H            X -0.14837189  0.03946761  0.57813488  0.08158503 -0.18987144
                   Y -0.11684943  0.03186837  0.25981065  0.05330020 -0.02711806
                   Z  0.00463135  0.09354454 -0.23655068 -0.02357177 -0.01733315
 11   O            X  0.02880889 -0.02228940  0.00354546 -0.00494768  0.05861120
                   Y  0.00171855  0.05042994 -0.01506504  0.00042945 -0.09791897
                   Z  0.16739651  0.05854257  0.02584636 -0.02796380  0.05389347
 12   H            X  0.00492238  0.15840347  0.24543231 -0.00448212  0.15600221
                   Y -0.02277726  0.05114266  0.07362167  0.02333992 -0.23524578
                   Z  0.14458847  0.14635251  0.18370045 -0.01715350  0.03728965
 13   H            X  0.00945406 -0.24331488 -0.45833702 -0.01761733  0.21626778
                   Y  0.04278702  0.08785911  0.04291552 -0.01329284 -0.10045636
                   Z  0.12897563  0.07629619  0.08447455 -0.00997180  0.01665033

 TRANS. SAYVETZ    X -0.04106354 -0.01270451  0.02122504 -0.00358632 -0.01306012
                   Y -0.00511142  0.00212530  0.00687064 -0.03563482 -0.02575112
                   Z  0.00506298 -0.00689761 -0.04852825 -0.00490034  0.02038247
               TOTAL  0.04168902  0.01461159  0.05341067  0.03614852  0.03534306

   ROT. SAYVETZ    X -3.19594157 -0.43197987  3.65863587 -2.62623202 -0.81184474
                   Y -0.09639450 -0.39598118  0.96331672 -1.82449277  0.07629624
                   Z  1.45208073  1.36160832 -0.29670952  2.94758305 -0.40888281
               TOTAL  3.51167664  1.48235789  3.79494823  4.34903602  0.91219415

                           16          17          18          19          20
       FREQUENCY:       243.03      298.60      325.57      411.84      488.59  
        SYMMETRY:         A           A           A           A           A   
    REDUCED MASS:      1.52554     5.03896     1.08591     1.07198     3.17041
    IR INTENSITY:      2.53294     0.30271     8.69136     3.68536     0.40215

  1   CL           X  0.00069959 -0.01761791  0.00115991  0.00974590  0.04718511
                   Y -0.00412105 -0.05163137 -0.00086609 -0.00010582 -0.00200225
                   Z  0.00263039  0.05721819 -0.00108606 -0.01147438 -0.05547827
  2   C            X -0.00523387 -0.06544736 -0.00117492 -0.00259923 -0.01877330
                   Y  0.01181274  0.12267134  0.00210656  0.00578245  0.02720933
                   Z -0.00678751 -0.04465862 -0.00284185 -0.00901990 -0.01806768
  3   C            X -0.00289929  0.05423494 -0.00002695 -0.01359183 -0.07689850
                   Y  0.01428613  0.09779152  0.00348483  0.01581582  0.08231227
                   Z -0.00375442 -0.06168790 -0.00078868  0.00410724  0.05059041
  4   O            X  0.00389731  0.04570247 -0.00645325 -0.01147168 -0.02396702
                   Y  0.00506073 -0.08874252 -0.00341908 -0.01449802 -0.08356114
                   Z  0.00101862 -0.03687496 -0.00314195  0.01139664  0.11634469
  5   H            X -0.00399476 -0.07728683 -0.00304549 -0.00270677 -0.03056958
                   Y  0.01453753  0.14560514  0.00359704  0.01237703  0.07029129
                   Z -0.01453909 -0.09598680 -0.00513639 -0.02578584 -0.11836251
  6   H            X -0.00243429 -0.05386305  0.00005305  0.00474440  0.01748788
                   Y  0.00826105  0.07803573 -0.00102447 -0.00571714 -0.05234038
                   Z -0.01112863 -0.06263015 -0.00498616 -0.02161293 -0.08536260
  7   H            X  0.00000862  0.21093920  0.00901378 -0.00544258 -0.08600480
                   Y  0.01636947  0.17936877  0.00728650  0.02082590  0.08837892
                   Z -0.00936861 -0.12221020  0.00047616 -0.00732963 -0.03222427
  8   O            X  0.07318335 -0.00591593 -0.04606595 -0.01075749  0.00022902
                   Y -0.05091407  0.01211319  0.01191758  0.01175240  0.00305746
                   Z  0.00955051  0.00655083 -0.00040968 -0.01670872  0.01060911
  9   H            X -0.34617132 -0.00121070  0.45700793  0.19161010 -0.10570438
                   Y -0.33473780  0.02265328  0.29002712 -0.16656865  0.12646802
                   Z  0.17184520 -0.00853854 -0.10111515  0.37436697 -0.24366954
 10   H            X -0.12678131 -0.00363672  0.29665403 -0.19043744  0.10895399
                   Y -0.10458844 -0.00308212  0.25565727  0.41400051 -0.26426552
                   Z  0.07743611  0.00326744 -0.09311581  0.12180751 -0.07868630
 11   O            X -0.08697852  0.00563978 -0.04496901  0.01537506 -0.00363066
                   Y  0.07458873 -0.00375729 -0.01651987 -0.03371859  0.00404860
                   Z -0.03250247  0.00422228  0.01218289 -0.02609918 -0.00398339
 12   H            X  0.45045639 -0.02537586  0.40168463 -0.03480885 -0.04079243
                   Y -0.14260908  0.00804503 -0.30300412  0.44140994  0.13059905
                   Z  0.12623529 -0.00518686  0.09374235  0.17019348  0.03747924
 13   H            X  0.27097180 -0.02261856  0.39688029  0.00058168  0.07328106
                   Y -0.13024571  0.01244776 -0.16714147 -0.39227443 -0.11982030
                   Z  0.08823096 -0.00525816  0.05696643  0.34802131  0.10688401

 TRANS. SAYVETZ    X  0.01249974  0.00312100  0.03726460  0.00013434  0.00034420
                   Y -0.04958140  0.00082888 -0.00542422 -0.00117398  0.00049974
                   Z  0.04672250  0.00833564  0.00292714  0.00455201 -0.00001880
               TOTAL  0.06926435  0.00893927  0.03777090  0.00470288  0.00060710

   ROT. SAYVETZ    X -0.67992026  0.40102244 -0.68478292  1.01226337  0.30640186
                   Y -0.43528978  0.03257531 -0.34645770 -0.28443344 -0.00297637
                   Z -0.40964956 -0.04388334 -0.13479527  0.37370568  0.09265804
               TOTAL  0.90530742  0.40472941  0.77918570  1.11590119  0.32011947

                           21          22          23          24          25
       FREQUENCY:       506.92      770.30      874.60     1013.73     1143.20  
        SYMMETRY:         A           A           A           A           A   
    REDUCED MASS:      1.24536     1.36419     4.46495     1.21150     1.40630
    IR INTENSITY:      0.28976     0.57059     0.08462     0.03056     0.11806

  1   CL           X -0.02355455  0.03047470  0.04840576  0.01369719  0.00396661
                   Y  0.00118489  0.00153398 -0.02212641  0.00585267  0.00260635
                   Z  0.02730638 -0.00996685 -0.04359011  0.00723947  0.00120991
  2   C            X  0.01093244 -0.12324266 -0.13067515 -0.05941436  0.04007227
                   Y -0.01460138 -0.02865455  0.09751378 -0.03211608 -0.00632264
                   Z  0.00647927 -0.03880264  0.14391426 -0.03514294  0.06046807
  3   C            X  0.03930320 -0.03348789  0.03137129  0.07520051 -0.11878617
                   Y -0.04132740 -0.02837356 -0.06952673  0.03370555 -0.02356937
                   Z -0.02697516 -0.00074913  0.00816941  0.03217158 -0.06801322
  4   O            X  0.01053793  0.01331159 -0.00287068 -0.01789171  0.02534621
                   Y  0.04651245  0.01340666  0.03105443 -0.01001195  0.01283512
                   Z -0.06255970  0.02186218 -0.03099156 -0.01356539 -0.00259301
  5   H            X  0.01559054  0.31132191 -0.28432365  0.37223199  0.14931897
                   Y -0.03679563 -0.23333436  0.11990465  0.00598633  0.15070435
                   Z  0.05916342  0.23454451  0.12825147 -0.31955626 -0.36328486
  6   H            X -0.00725325 -0.10093998 -0.12498222 -0.36745455 -0.19260515
                   Y  0.02641480  0.53015166 -0.10026885  0.06305905 -0.29387510
                   Z  0.04053066  0.03758387  0.12202442  0.48646887  0.37796100
  7   H            X  0.04585011  0.39052613 -0.04584809 -0.38304714  0.44086152
                   Y -0.04391394  0.12334443 -0.07429799 -0.13473319  0.20557347
                   Z  0.01787075  0.21200772 -0.06494408 -0.17227688  0.07573217
  8   O            X -0.00140587  0.00010269  0.00017204 -0.00013599 -0.00002713
                   Y  0.00822608 -0.00038791 -0.00017534  0.00018199 -0.00004268
                   Z  0.01595125 -0.00029035 -0.00019587  0.00021733 -0.00002870
  9   H            X -0.14986910  0.00063061 -0.00073285  0.00061179  0.00051426
                   Y  0.18119332  0.00125055 -0.00121187  0.00064675  0.00070797
                   Z -0.34297073 -0.00147820  0.00117375 -0.00061137 -0.00033388
 10   H            X  0.14978154  0.00088923 -0.00064675  0.00020755  0.00033174
                   Y -0.37302311 -0.00191854  0.00090467 -0.00026664 -0.00058224
                   Z -0.11059488 -0.00080454  0.00027362  0.00000659 -0.00021671
 11   O            X -0.00558581  0.00004191 -0.00008034 -0.00004411  0.00002757
                   Y -0.00099037  0.00006126 -0.00011395 -0.00005815  0.00003956
                   Z -0.00616983 -0.00009420  0.00023237  0.00004461  0.00001967
 12   H            X -0.05599765 -0.00024649  0.00079774  0.00022423 -0.00014652
                   Y  0.37830954 -0.00125850  0.00388574  0.00101213 -0.00041231
                   Z  0.14658312 -0.00087062  0.00245723  0.00066054 -0.00023654
 13   H            X  0.16648639 -0.00151898  0.00181128  0.00077769 -0.00023613
                   Y -0.36167353  0.00167205 -0.00346311 -0.00091184  0.00028765
                   Z  0.32542536 -0.00143605  0.00285185  0.00068779 -0.00009243

 TRANS. SAYVETZ    X  0.00175053  0.00549199 -0.00087885 -0.00004230  0.00071179
                   Y -0.00129844  0.00171061 -0.00077866 -0.00014251  0.00057584
                   Z  0.00180982  0.00368160 -0.00082386  0.00005509  0.00037705
               TOTAL  0.00283298  0.00682952  0.00143437  0.00015853  0.00099015

   ROT. SAYVETZ    X  0.74984647  0.12839092 -0.02352612 -0.07714876  0.08173194
                   Y  0.05385464  0.12518461 -0.01051682 -0.06681736  0.02893033
                   Z  0.06743421 -0.11894395  0.01923825  0.07246184 -0.07646099
               TOTAL  0.75479628  0.21518150  0.03215886  0.12516873  0.11559999

                           26          27          28          29          30
       FREQUENCY:      1192.65     1265.10     1343.24     1354.83     1900.59  
        SYMMETRY:         A           A           A           A           A   
    REDUCED MASS:      2.01836     1.32593     1.19083     1.37348     1.08086
    IR INTENSITY:      0.17663     2.38758     2.39792     0.13861     1.56757

  1   CL           X  0.00681730 -0.00434420  0.00138965  0.00144482  0.00000916
                   Y -0.00448894  0.00545254  0.00094665  0.00102212  0.00000534
                   Z -0.00533367  0.00021224 -0.00268256 -0.00237094 -0.00001234
  2   C            X -0.00153418 -0.07527448  0.02062486 -0.02783243  0.00010435
                   Y -0.11663476 -0.04786229 -0.09855134 -0.03332097  0.00000040
                   Z  0.06538237  0.11005190  0.06026941  0.07732359 -0.00006112
  3   C            X -0.01140920  0.01558939  0.00264507 -0.00510602 -0.00000226
                   Y  0.15258779  0.02076505  0.00802276  0.08477037  0.00001257
                   Z -0.05416418  0.00478268  0.00294869 -0.06998162 -0.00027193
  4   O            X  0.01160506  0.00271309 -0.00076238  0.03005864 -0.00008783
                   Y -0.00492029  0.01216486  0.00684747 -0.03265569 -0.00024502
                   Z -0.02437113 -0.02262556 -0.00506804 -0.03353194  0.00139615
  5   H            X -0.14822027  0.49662402 -0.42625131  0.03475844  0.00022310
                   Y -0.24578837 -0.03193673  0.23920096  0.06264247  0.00015986
                   Z  0.45895759 -0.24300256 -0.38759198 -0.13952329 -0.00001722
  6   H            X -0.10056063  0.28863869  0.06567288  0.06331619 -0.00005463
                   Y -0.13289522 -0.13631965  0.61720688  0.05584231 -0.00013357
                   Z  0.20641098 -0.46264227  0.01428183 -0.08206758 -0.00029188
  7   H            X -0.01791930  0.03256785  0.04690739 -0.23068473  0.00049206
                   Y  0.18274363  0.10912050  0.08085208 -0.25353863  0.00035421
                   Z -0.23076845 -0.31160299 -0.20611005  0.74096405 -0.00123929
  8   O            X  0.00000929 -0.00001956  0.00002017 -0.00014235 -0.00205695
                   Y  0.00010154 -0.00004859 -0.00005180  0.00038208  0.00268664
                   Z  0.00012866 -0.00001206 -0.00003789  0.00034128 -0.00146949
  9   H            X -0.00005286  0.00048799  0.00003146  0.00039621  0.01748919
                   Y -0.00050786  0.00095899  0.00017091 -0.00073670 -0.01445704
                   Z  0.00017266 -0.00039186  0.00004157 -0.00055134  0.03423302
 10   H            X -0.00055892  0.00040046  0.00000303 -0.00059088  0.01413394
                   Y  0.00107115 -0.00082432  0.00007883  0.00119618 -0.03048914
                   Z  0.00048831 -0.00016827  0.00001135  0.00050278 -0.00956225
 11   O            X -0.00000143  0.00004919  0.00000593 -0.00010055 -0.03022314
                   Y -0.00003750  0.00001594  0.00000245 -0.00014283 -0.05928567
                   Z  0.00004204  0.00011050  0.00002467  0.00004287  0.00804799
 12   H            X  0.00004560 -0.00026339 -0.00005288  0.00073394  0.18055679
                   Y  0.00031136 -0.00007881 -0.00004558  0.00210621  0.55406524
                   Z  0.00027172  0.00000145  0.00000277  0.00135684  0.32984425
 13   H            X  0.00025993 -0.00026167  0.00001734  0.00104922  0.29936131
                   Y -0.00013838  0.00037542  0.00005572 -0.00095198  0.39241447
                   Z  0.00030098 -0.00017903 -0.00002154  0.00050821 -0.47516031

 TRANS. SAYVETZ    X -0.00027577  0.00033323 -0.00006963  0.00011552  0.00003307
                   Y  0.00005688  0.00039167  0.00035169  0.00015277  0.00009831
                   Z  0.00026659 -0.00083368 -0.00038281  0.00026670 -0.00002399
               TOTAL  0.00038775  0.00097952  0.00052448  0.00032835  0.00010646

   ROT. SAYVETZ    X -0.01490407 -0.03140391  0.00465216  0.02843125 -0.00296557
                   Y -0.02105456 -0.00613944  0.01296327  0.02596953  0.00473011
                   Z  0.02633900  0.05069190  0.00019385 -0.04104523  0.01354268
               TOTAL  0.03686691  0.05994636  0.01377413  0.05628022  0.01464830

                           31          32          33          34          35
       FREQUENCY:      1929.85     2027.75     3019.95     3079.17     3103.86  
        SYMMETRY:         A           A           A           A           A   
    REDUCED MASS:      1.07191    11.27769     1.09696     1.04832     1.07642
    IR INTENSITY:      1.61343     0.18445     0.06583     0.02695     0.00429

  1   CL           X  0.00000324  0.00083262 -0.00035062  0.00077969  0.00011079
                   Y  0.00000779  0.00047634 -0.00015504 -0.00032411 -0.00023105
                   Z -0.00000749 -0.00133230 -0.00019335 -0.00060235  0.00001797
  2   C            X  0.00000421  0.00205255 -0.05830139  0.02563614  0.00763103
                   Y  0.00006267  0.00652478 -0.03954361 -0.04768790 -0.01914263
                   Z -0.00015081 -0.01101940 -0.04917095  0.00118531 -0.00043218
  3   C            X -0.00088742 -0.10349155 -0.00196181 -0.01161421  0.03186452
                   Y  0.00005612  0.02067724  0.00119412  0.01716205 -0.06294001
                   Z  0.00171017  0.19094936 -0.00226475  0.01190814 -0.01960002
  4   O            X  0.00080277  0.07869234 -0.00056567  0.00079162  0.00010556
                   Y -0.00008259 -0.02763858  0.00003232  0.00066019 -0.00242911
                   Z -0.00066900 -0.13697986  0.00067597 -0.00196271  0.00155621
  5   H            X  0.00040306 -0.01614026  0.10799366  0.16400882  0.05979711
                   Y  0.00009391 -0.00759893  0.54656353  0.62083390  0.22555196
                   Z -0.00017887  0.01296738  0.23201232  0.29384197  0.10145827
  6   H            X  0.00004823  0.00512774  0.62230768 -0.50304521 -0.15152454
                   Y  0.00004082  0.01035700 -0.06176225  0.01206012  0.00239076
                   Z  0.00000989  0.01569245  0.38500928 -0.32081282 -0.09945834
  7   H            X -0.00025166 -0.05987632  0.00832508  0.13250008 -0.38400061
                   Y  0.00097798  0.09286897 -0.02316876 -0.26854415  0.79596844
                   Z  0.00002432  0.04507599 -0.00840467 -0.07698873  0.21115698
  8   O            X  0.03517525 -0.00030588  0.00001378 -0.00000858 -0.00000421
                   Y -0.04788914  0.00042300 -0.00000829  0.00006338  0.00003060
                   Z  0.01988860 -0.00009394 -0.00001805  0.00005264  0.00002637
  9   H            X -0.30983148  0.00312639 -0.00009882  0.00027990  0.00012902
                   Y  0.25107143 -0.00111769 -0.00000875 -0.00109360 -0.00054785
                   Z -0.54990481  0.00444966  0.00018869 -0.00046434 -0.00017113
 10   H            X -0.29468660  0.00248138 -0.00002641 -0.00019280 -0.00010130
                   Y  0.58085793 -0.00455292 -0.00001843  0.00010212  0.00003711
                   Z  0.20146358 -0.00093537 -0.00004018 -0.00038688 -0.00022092
 11   O            X  0.00041467 -0.00001091 -0.00000026 -0.00000152  0.00000075
                   Y -0.00749762 -0.00014192 -0.00000374  0.00002339  0.00001202
                   Z  0.00162510  0.00016701 -0.00000370  0.00001365  0.00001379
 12   H            X  0.01298989 -0.00008841 -0.00000187  0.00007213  0.00003234
                   Y  0.02960391  0.00124328  0.00000305  0.00001801  0.00002997
                   Z  0.01955655  0.00115447  0.00000106 -0.00014451 -0.00005126
 13   H            X  0.02411042  0.00044845 -0.00000184 -0.00003521 -0.00006037
                   Y  0.01605659  0.00258638  0.00009260 -0.00050292 -0.00018776
                   Z -0.02013894 -0.00189998  0.00001612  0.00003469 -0.00014486

 TRANS. SAYVETZ    X -0.00004405  0.00002864  0.00002540  0.00000099  0.00000315
                   Y  0.00004911  0.00002043  0.00002300  0.00001648  0.00000650
                   Z -0.00004089 -0.00013830  0.00002101 -0.00001686  0.00000781
               TOTAL  0.00007761  0.00014270  0.00004019  0.00002359  0.00001064

   ROT. SAYVETZ    X  0.01130249 -0.00575509 -0.00629052 -0.00497224  0.01221364
                   Y  0.01075858 -0.00171316  0.00512776 -0.00802048  0.00609365
                   Z -0.00870749  0.00403027  0.00854160  0.00233007 -0.00776498
               TOTAL  0.01786935  0.00723181  0.01178233  0.00972010  0.01570352

                           36          37          38          39
       FREQUENCY:      3464.65     3472.92     3561.44     3570.57  
        SYMMETRY:         A           A           A           A   
    REDUCED MASS:      1.08025     1.07951     1.04468     1.04626
    IR INTENSITY:      0.39000     0.14544     0.11114     0.09887

  1   CL           X -0.00000614 -0.00000125  0.00000435  0.00000021
                   Y -0.00000158 -0.00000133  0.00000053  0.00000064
                   Z  0.00000683  0.00000231 -0.00000466 -0.00000094
  2   C            X  0.00006161 -0.00002487 -0.00004150  0.00001939
                   Y -0.00007087 -0.00000031  0.00003406 -0.00000409
                   Z  0.00002244  0.00001040 -0.00001488 -0.00000620
  3   C            X  0.00017694  0.00010473 -0.00009194 -0.00004628
                   Y  0.00005639 -0.00010571 -0.00008319  0.00007224
                   Z -0.00035879 -0.00006427  0.00020318 -0.00000730
  4   O            X -0.00001228 -0.00007973 -0.00004796  0.00005140
                   Y -0.00023533  0.00014767  0.00033470 -0.00012230
                   Z -0.00004129 -0.00001369  0.00021685  0.00011227
  5   H            X  0.00011365  0.00001734 -0.00003513  0.00000045
                   Y  0.00089067  0.00004037 -0.00034821  0.00002752
                   Z  0.00047191  0.00001799 -0.00020453  0.00002224
  6   H            X -0.00084582 -0.00009159  0.00045690 -0.00000714
                   Y  0.00000113  0.00003263  0.00000029 -0.00001964
                   Z -0.00038894 -0.00006324  0.00018969  0.00001370
  7   H            X -0.00045971  0.00016915  0.00034894 -0.00011949
                   Y -0.00029649 -0.00001328  0.00024985 -0.00005430
                   Z  0.00057717  0.00004198 -0.00042815  0.00001809
  8   O            X -0.00191912  0.00064769 -0.02659614  0.00568760
                   Y -0.02491174  0.00607781  0.03661448 -0.00792742
                   Z -0.05976388  0.01522760 -0.01407298  0.00291418
  9   H            X -0.21377793  0.05396990  0.20740396 -0.04514488
                   Y  0.50475900 -0.12608274 -0.52492185  0.11383296
                   Z  0.33547547 -0.08046603 -0.39977824  0.08358665
 10   H            X  0.24283045 -0.06325375  0.21780144 -0.04603004
                   Y -0.10473590  0.02736739 -0.06317144  0.01534195
                   Z  0.61829405 -0.16156341  0.61957707 -0.12995764
 11   O            X  0.00159416  0.00649921  0.00487244  0.02331491
                   Y -0.00478548 -0.01857982  0.00856862  0.04033369
                   Z -0.01586441 -0.06143219 -0.00329407 -0.01331036
 12   H            X -0.05924435 -0.23053918 -0.06243032 -0.28762714
                   Y -0.05522625 -0.22342728 -0.05479802 -0.25135457
                   Z  0.11895766  0.47357601  0.14049861  0.64553150
 13   H            X  0.03411101  0.12665976 -0.01657225 -0.08187059
                   Y  0.12989265  0.51947717 -0.07884817 -0.39096935
                   Z  0.13130877  0.50253299 -0.08974247 -0.43580624

 TRANS. SAYVETZ    X  0.00000260  0.00000028  0.00000357 -0.00000524
                   Y  0.00000665  0.00001359 -0.00000374  0.00000830
                   Z -0.00000252 -0.00000263  0.00000662  0.00000181
               TOTAL  0.00000758  0.00001385  0.00000840  0.00000999

   ROT. SAYVETZ    X -0.00667897 -0.01429732 -0.00000681 -0.01063651
                   Y -0.00226212  0.00157803  0.00151518 -0.00232124
                   Z -0.00004886 -0.00322130 -0.00250429 -0.00678330
               TOTAL  0.00705183  0.01474043  0.00292700  0.01282718

 REFERENCE ON SAYVETZ CONDITIONS - A. SAYVETZ, J.CHEM.PHYS., 7, 383-389(1939).

 NOTE - THE MODES J,K ARE ORTHONORMALIZED ACCORDING TO
 SUM ON I   M(I) * (X(I,J)*X(I,K) + Y(I,J)*Y(I,K) + Z(I,J)*Z(I,K)) = DELTA(J,K)

  MODE FREQ(CM**-1)  SYMMETRY  RED. MASS  IR INTENS.
     1      10.823    A        9.354837    0.030851
     2       4.522    A        9.305830    0.016993
     3       2.208    A        8.652423    0.000700
     4       0.316    A        9.334384    0.002448
     5      10.614    A        5.252406    0.081288
     6      16.263    A       10.712436    0.055151
     7      20.768    A        8.001679    0.057830
     8      25.378    A        6.550375    0.094301
     9      45.489    A        3.264686    0.238807
    10      79.249    A        1.125573    0.440355
    11     100.199    A        5.156735    0.037739
    12     115.952    A        4.595673    0.019003
    13     136.419    A        1.105315    0.271958
    14     158.275    A        2.452251    0.246059
    15     232.872    A        2.354171    1.059924
    16     243.027    A        1.525544    2.532939
    17     298.605    A        5.038959    0.302709
    18     325.566    A        1.085911    8.691359
    19     411.844    A        1.071981    3.685363
    20     488.586    A        3.170412    0.402154
    21     506.917    A        1.245361    0.289765
    22     770.298    A        1.364185    0.570588
    23     874.597    A        4.464946    0.084624
    24    1013.726    A        1.211499    0.030556
    25    1143.197    A        1.406300    0.118063
    26    1192.654    A        2.018364    0.176625
    27    1265.101    A        1.325931    2.387578
    28    1343.235    A        1.190833    2.397918
    29    1354.829    A        1.373484    0.138606
    30    1900.594    A        1.080861    1.567570
    31    1929.853    A        1.071909    1.613428
    32    2027.751    A       11.277688    0.184454
    33    3019.947    A        1.096965    0.065834
    34    3079.168    A        1.048318    0.026946
    35    3103.858    A        1.076421    0.004292
    36    3464.648    A        1.080247    0.390004
    37    3472.922    A        1.079507    0.145435
    38    3561.441    A        1.044685    0.111141
    39    3570.568    A        1.046262    0.098869

     -------------------------------
     THERMOCHEMISTRY AT T=  298.15 K
     -------------------------------

 USING IDEAL GAS, RIGID ROTOR, HARMONIC NORMAL MODE APPROXIMATIONS.
 P=  1.01325E+05 PASCAL.
 ALL FREQUENCIES ARE SCALED BY   1.00000
 THE MOMENTS OF INERTIA ARE (IN AMU*BOHR**2)
            366.04518          2625.61825          2813.31975
 THE ROTATIONAL SYMMETRY NUMBER IS  1.0
 THE ROTATIONAL CONSTANTS ARE (IN GHZ)
      4.92586     0.68673     0.64091
      7 -     39 VIBRATIONAL MODES ARE USED IN THERMOCHEMISTRY.
 THE HARMONIC ZERO POINT ENERGY IS (SCALED BY   1.000)
        0.094037 HARTREE/MOLECULE    20638.766922 CM**-1/MOLECULE 
       59.009255 KCAL/MOL              246.894723 KJ/MOL

               Q               LN Q
 ELEC.     1.00000E+00       0.000000
 TRANS.    4.78474E+07      17.683528
 ROT.      5.88619E+05      13.285534
 VIB.      1.81138E+05      12.107014
 TOT.      5.10155E+18      43.076077

              E         H         G         CV        CP        S
           KJ/MOL    KJ/MOL    KJ/MOL   J/MOL-K   J/MOL-K   J/MOL-K
 ELEC.      0.000     0.000    -0.000     0.000     0.000     0.000
 TRANS.     3.718     6.197   -43.836    12.472    20.786   167.814
 ROT.       3.718     3.718   -32.934    12.472    12.472   122.933
 VIB.     270.423   270.423   216.882   121.099   121.099   179.576
 TOTAL    277.859   280.338   140.112   146.043   154.357   470.323
 VIB. THERMAL CORRECTION E(T)-E(0) = H(T)-H(0) =     23527.929 J/MOL

              E         H         G         CV        CP        S
         KCAL/MOL  KCAL/MOL  KCAL/MOL CAL/MOL-K CAL/MOL-K CAL/MOL-K
 ELEC.      0.000     0.000    -0.000     0.000     0.000     0.000
 TRANS.     0.889     1.481   -10.477     2.981     4.968    40.109
 ROT.       0.889     0.889    -7.871     2.981     2.981    29.382
 VIB.      64.633    64.633    51.836    28.943    28.943    42.920
 TOTAL     66.410    67.002    33.487    34.905    36.892   112.410
 VIB. THERMAL CORRECTION E(T)-E(0) = H(T)-H(0) =      5623.310 CAL/MOL
 ......END OF NORMAL COORDINATE ANALYSIS......
 STEP CPU TIME =     0.00 TOTAL CPU TIME =          9.3 (      0.2 MIN)
 TOTAL WALL CLOCK TIME=          9.3 SECONDS, CPU UTILIZATION IS   100.00%

             ----------------------------------------------
             -------   RESULTS OF PCM CALCULATION   -------
             ----------------------------------------------

 FREE ENERGY IN SOLVENT = <PSI| H(0)+V/2 |PSI>       =      -62.0866088636 A.U.
 INTERNAL ENERGY IN SOLVENT = <PSI| H(0) |PSI>       =      -62.0720414181 A.U.
 DELTA INTERNAL ENERGY =  <D-PSI| H(0) |D-PSI>       =        0.0000000000 A.U.
 ELECTROSTATIC INTERACTION                           =       -0.0145674455 A.U.
 PIEROTTI CAVITATION ENERGY                          =        0.0000000000 A.U.
 DISPERSION FREE ENERGY                              =        0.0000000000 A.U.
 REPULSION FREE ENERGY                               =        0.0000000000 A.U.
 TOTAL INTERACTION (DELTA + ES + CAV + DISP + REP)   =       -0.0145674455 A.U.
 TOTAL FREE ENERGY IN SOLVENT                        =      -62.0866088636 A.U.

 FREE ENERGY IN SOLVENT       =      -38959.94 KCAL/MOL
 INTERNAL ENERGY IN SOLVENT   =      -38950.80 KCAL/MOL
 DELTA INTERNAL ENERGY        =           0.00 KCAL/MOL
 ELECTROSTATIC INTERACTION    =          -9.14 KCAL/MOL
 PIEROTTI CAVITATION ENERGY   =           0.00 KCAL/MOL
 DISPERSION FREE ENERGY       =           0.00 KCAL/MOL
 REPULSION FREE ENERGY        =           0.00 KCAL/MOL
 TOTAL INTERACTION            =          -9.14 KCAL/MOL
 TOTAL FREE ENERGY IN SOLVENT =      -38959.94 KCAL/MOL

 -INTERNAL ENERGY IN SOLVENT-
    OMITS ES,CAV,DISP,REP (USES SOLVATED ORBITALS IN THE GAS PHASE HAMILTONIAN)
 -FREE ENERGY IN SOLVENT-
    INCLUDES ES+DISP+REP WHICH ARE IN THE SELF-CONSISTENT WAVEFUNCTION.
 -TOTAL FREE ENERGY IN SOLVENT-
    INCLUDES ES+DISP+REP+CAV, MEANING CAVITATION IS NOT IN THE SCF ENERGY.

 .... DONE PRINTING PCM SOLVENT SUMMARY ....
 STEP CPU TIME =     0.00 TOTAL CPU TIME =          9.3 (      0.2 MIN)
 TOTAL WALL CLOCK TIME=          9.3 SECONDS, CPU UTILIZATION IS   100.00%
                   580000  WORDS OF DYNAMIC MEMORY USED
 EXECUTION OF GAMESS TERMINATED NORMALLY 09:51:33 27-JUL-2026    
 DDI: 263640 bytes (0.3 MB / 0 MWords) used by master data server.

 ----------------------------------------
 CPU timing information for all processes
 ========================================
 0: 8.984375 + 0.359375 = 9.343750
 1: 0.046875 + 0.000000 = 0.046875
 ----------------------------------------
           Disk usage (in bytes)
 ========================================
 ----------------------------------------
            Local date and time
 ========================================
27/07/2026 -  9:51:35.42
