!   File created by the GAMESS Input Deck Generator Plugin for Avogadro
! Investigation of a potential dyotropic mechanism
 $BASIS GBASIS=N21 NGAUSS=3 $END
 $PCM SOLVNT=WATER $END
 $CONTRL SCFTYP=RHF RUNTYP=OPTIMIZE $END
 $CONTRL DFTTYP=wB97X-D $END
 $CONTRL NZVAR=52 $END
 $STATPT OPTTOL=1e-4 NSTEP=200 IHREP=20 HSSEND=.t. $END
 $ZMAT DLC=.t. AUTO=.t. NONVDW(1)=9,6,10,16 $END
 $ZMAT IFZMAT(1)=1,9,10, 2,6,10,16 FVALUE(1)=2.0, 90 $END
 $SCF DIIS=.t. DAMP=.t. $END
 $SYSTEM MWORDS=50 $END

 $DATA 
Investigation of a potential dyotropic rearrangement
C1
 C           6.0  -1.5394861787   1.3299868093  -1.5790520126
 C           6.0  -0.6363885545   1.0946617995  -0.3493367280
 C           6.0  -2.9786043536   1.3239598396  -1.0208337792
 C           6.0  -1.6058169369   0.4681482775   0.6970906583
 H           1.0  -0.0333305453   1.9493085941  -0.0516482028
 C           6.0   0.0556532095  -0.2748970501  -0.3702077317
 O           8.0  -2.9349155913   0.5680687855   0.2491291831
 H           1.0  -1.5345840475   0.7562385117   1.7441367350
 O           8.0  -0.9585506506  -0.8709953777   0.5037753235
 C           6.0   1.0074047959  -0.5617353658   0.7022127883
 H           1.0   0.2112453558  -0.7537158658  -1.3353351522
 H           1.0  -1.4151463297   0.5127511854  -2.2936878902
 H           1.0  -1.3180348672   2.2730236544  -2.0809996133
 H           1.0  -3.6852217486   0.8262381923  -1.6846274821
 H           1.0  -3.3246201518   2.3368060387  -0.8010431661
 O           8.0   2.4087514164  -0.1691843083   0.4587417305
 H           1.0   0.9526152559  -1.6298570337   0.9292822413
 H           1.0   0.7459333072   0.0036267331   1.5949356357
 H           1.0   2.7645788663  -0.7633629826  -0.2430660888
 $END
