1 : aa002-water-pcseg2
2 : 00
3 : 8
----- GAMESS execution script 'rungms' -----
This job is running on host nid003555
under operating system Linux at Sat 12 Sep 2026 02:46:54 PM BST
Available scratch disk space (Kbyte units) at beginning of the job is
Filesystem                                         1K-blocks         Used  Available Use% Mounted on
10.253.101.2@o2ib1:10.253.101.3@o2ib1:/cls01096 125829120000 123923180912 1905939088  99% /mnt/lustre/a2fs-work3
GAMESS temporary binary files will be written to /work/e283/e283/darren01/gamess/restart
GAMESS supplementary output files will be written to /work/e283/e283/darren01/gamess/restart
Copying input file /mnt/lustre/a2fs-work3/work/e283/e283/darren01/jobs/aa002-water-pcseg2/aa002-water-pcseg2.inp to your run's scratch directory...
cp /mnt/lustre/a2fs-work3/work/e283/e283/darren01/jobs/aa002-water-pcseg2/aa002-water-pcseg2.inp /work/e283/e283/darren01/gamess/restart/aa002-water-pcseg2.F05
unset echo
setenv NO_STOP_MESSAGE 1
setenv AUXDATA /work/e283/e283/darren01/gamess/auxdata
setenv EXTBAS /dev/null
setenv NUCBAS /mnt/lustre/a2fs-work3/work/e283/e283/darren01/jobs/aa002-water-pcseg2/aa002-water-pcseg2.nucbas
setenv EXTCAB /work/e283/e283/darren01/gamess/auxdata/AUXBAS/auxdef21
setenv POSBAS /mnt/lustre/a2fs-work3/work/e283/e283/darren01/jobs/aa002-water-pcseg2/aa002-water-pcseg2.posbas
setenv DFTBPAR /work/e283/e283/darren01/gamess/auxdata/DFTB
setenv ERICFMT /work/e283/e283/darren01/gamess/auxdata/ericfmt.dat
setenv MCPPATH /work/e283/e283/darren01/gamess/auxdata/MCP
setenv BASPATH /work/e283/e283/darren01/gamess/auxdata/BASES
setenv QUANPOL /work/e283/e283/darren01/gamess/auxdata/QUANPOL
setenv MAKEFP /work/e283/e283/darren01/gamess/restart/aa002-water-pcseg2.efp
setenv GAMMA /work/e283/e283/darren01/gamess/restart/aa002-water-pcseg2.gamma
setenv TRAJECT /work/e283/e283/darren01/gamess/restart/aa002-water-pcseg2.trj
setenv RESTART /work/e283/e283/darren01/gamess/restart/aa002-water-pcseg2.rst
setenv QMWAVE /work/e283/e283/darren01/gamess/restart/aa002-water-pcseg2.qmw
setenv MDDIP /work/e283/e283/darren01/gamess/restart/aa002-water-pcseg2.dip
setenv OPTHES1 /work/e283/e283/darren01/gamess/restart/aa002-water-pcseg2.hs1
setenv OPTHES2 /work/e283/e283/darren01/gamess/restart/aa002-water-pcseg2.hs2
setenv FCIDUMP /work/e283/e283/darren01/gamess/restart/aa002-water-pcseg2.FCIDUMP
setenv XYZ /work/e283/e283/darren01/gamess/restart/aa002-water-pcseg2.xyz
setenv IRCDATA /work/e283/e283/darren01/gamess/restart/aa002-water-pcseg2.F04
setenv INPUT /work/e283/e283/darren01/gamess/restart/aa002-water-pcseg2.F05
setenv PUNCH /work/e283/e283/darren01/gamess/restart/aa002-water-pcseg2.dat
setenv NAMDRST /work/e283/e283/darren01/gamess/restart/aa002-water-pcseg2.namdrst
setenv AOINTS /work/e283/e283/darren01/gamess/restart/aa002-water-pcseg2.F08
setenv MOINTS /work/e283/e283/darren01/gamess/restart/aa002-water-pcseg2.F09
setenv DICTNRY /work/e283/e283/darren01/gamess/restart/aa002-water-pcseg2.F10
setenv DRTFILE /work/e283/e283/darren01/gamess/restart/aa002-water-pcseg2.F11
setenv CIVECTR /work/e283/e283/darren01/gamess/restart/aa002-water-pcseg2.F12
setenv CASINTS /work/e283/e283/darren01/gamess/restart/aa002-water-pcseg2.F13
setenv CIINTS /work/e283/e283/darren01/gamess/restart/aa002-water-pcseg2.F14
setenv WORK15 /work/e283/e283/darren01/gamess/restart/aa002-water-pcseg2.F15
setenv WORK16 /work/e283/e283/darren01/gamess/restart/aa002-water-pcseg2.F16
setenv CSFSAVE /work/e283/e283/darren01/gamess/restart/aa002-water-pcseg2.F17
setenv FOCKDER /work/e283/e283/darren01/gamess/restart/aa002-water-pcseg2.F18
setenv WORK19 /work/e283/e283/darren01/gamess/restart/aa002-water-pcseg2.F19
setenv DASORT /work/e283/e283/darren01/gamess/restart/aa002-water-pcseg2.F20
setenv DIABDAT /work/e283/e283/darren01/gamess/restart/aa002-water-pcseg2.F21
setenv DFTINTS /work/e283/e283/darren01/gamess/restart/aa002-water-pcseg2.F21
setenv DFTGRID /work/e283/e283/darren01/gamess/restart/aa002-water-pcseg2.F22
setenv JKFILE /work/e283/e283/darren01/gamess/restart/aa002-water-pcseg2.F23
setenv ORDINT /work/e283/e283/darren01/gamess/restart/aa002-water-pcseg2.F24
setenv EFPIND /work/e283/e283/darren01/gamess/restart/aa002-water-pcseg2.F25
setenv PCMDATA /work/e283/e283/darren01/gamess/restart/aa002-water-pcseg2.F26
setenv PCMINTS /work/e283/e283/darren01/gamess/restart/aa002-water-pcseg2.F27
setenv SVPWRK1 /work/e283/e283/darren01/gamess/restart/aa002-water-pcseg2.F26
setenv SVPWRK2 /work/e283/e283/darren01/gamess/restart/aa002-water-pcseg2.F27
setenv COSCAV /work/e283/e283/darren01/gamess/restart/aa002-water-pcseg2.F26
setenv COSDATA /work/e283/e283/darren01/gamess/restart/aa002-water-pcseg2.cosmo
setenv COSPOT /work/e283/e283/darren01/gamess/restart/aa002-water-pcseg2.pot
setenv MLTPL /work/e283/e283/darren01/gamess/restart/aa002-water-pcseg2.F28
setenv MLTPLT /work/e283/e283/darren01/gamess/restart/aa002-water-pcseg2.F29
setenv DAFL30 /work/e283/e283/darren01/gamess/restart/aa002-water-pcseg2.F30
setenv SOINTX /work/e283/e283/darren01/gamess/restart/aa002-water-pcseg2.F31
setenv SOINTY /work/e283/e283/darren01/gamess/restart/aa002-water-pcseg2.F32
setenv SOINTZ /work/e283/e283/darren01/gamess/restart/aa002-water-pcseg2.F33
setenv SORESC /work/e283/e283/darren01/gamess/restart/aa002-water-pcseg2.F34
setenv RISM01 /work/e283/e283/darren01/gamess/restart/aa002-water-pcseg2.F26R
setenv RISM02 /work/e283/e283/darren01/gamess/restart/aa002-water-pcseg2.F27R
setenv QOPWRF /work/e283/e283/darren01/gamess/restart/aa002-water-pcseg2.wrf
setenv GCILIST /work/e283/e283/darren01/gamess/restart/aa002-water-pcseg2.F37
setenv HESSIAN /work/e283/e283/darren01/gamess/restart/aa002-water-pcseg2.F38
setenv QMMMTEI /work/e283/e283/darren01/gamess/restart/aa002-water-pcseg2.F39
setenv SOCCDAT /work/e283/e283/darren01/gamess/restart/aa002-water-pcseg2.F40
setenv AABB41 /work/e283/e283/darren01/gamess/restart/aa002-water-pcseg2.F41
setenv BBAA42 /work/e283/e283/darren01/gamess/restart/aa002-water-pcseg2.F42
setenv BBBB43 /work/e283/e283/darren01/gamess/restart/aa002-water-pcseg2.F43
setenv REMD /work/e283/e283/darren01/gamess/restart/aa002-water-pcseg2.F44
setenv UNV /work/e283/e283/darren01/gamess/restart/aa002-water-pcseg2.F45
setenv UNPV /work/e283/e283/darren01/gamess/restart/aa002-water-pcseg2.F46
setenv MCQD50 /work/e283/e283/darren01/gamess/restart/aa002-water-pcseg2.F50
setenv MCQD51 /work/e283/e283/darren01/gamess/restart/aa002-water-pcseg2.F51
setenv MCQD52 /work/e283/e283/darren01/gamess/restart/aa002-water-pcseg2.F52
setenv MCQD53 /work/e283/e283/darren01/gamess/restart/aa002-water-pcseg2.F53
setenv MCQD54 /work/e283/e283/darren01/gamess/restart/aa002-water-pcseg2.F54
setenv MCQD55 /work/e283/e283/darren01/gamess/restart/aa002-water-pcseg2.F55
setenv MCQD56 /work/e283/e283/darren01/gamess/restart/aa002-water-pcseg2.F56
setenv MCQD57 /work/e283/e283/darren01/gamess/restart/aa002-water-pcseg2.F57
setenv MCQD58 /work/e283/e283/darren01/gamess/restart/aa002-water-pcseg2.F58
setenv MCQD59 /work/e283/e283/darren01/gamess/restart/aa002-water-pcseg2.F59
setenv MCQD60 /work/e283/e283/darren01/gamess/restart/aa002-water-pcseg2.F60
setenv MCQD61 /work/e283/e283/darren01/gamess/restart/aa002-water-pcseg2.F61
setenv MCQD62 /work/e283/e283/darren01/gamess/restart/aa002-water-pcseg2.F62
setenv MCQD63 /work/e283/e283/darren01/gamess/restart/aa002-water-pcseg2.F63
setenv MCQD64 /work/e283/e283/darren01/gamess/restart/aa002-water-pcseg2.F64
setenv NMRINT1 /work/e283/e283/darren01/gamess/restart/aa002-water-pcseg2.F61
setenv NMRINT2 /work/e283/e283/darren01/gamess/restart/aa002-water-pcseg2.F62
setenv NMRINT3 /work/e283/e283/darren01/gamess/restart/aa002-water-pcseg2.F63
setenv NMRINT4 /work/e283/e283/darren01/gamess/restart/aa002-water-pcseg2.F64
setenv NMRINT5 /work/e283/e283/darren01/gamess/restart/aa002-water-pcseg2.F65
setenv NMRINT6 /work/e283/e283/darren01/gamess/restart/aa002-water-pcseg2.F66
setenv DCPHFH2 /work/e283/e283/darren01/gamess/restart/aa002-water-pcseg2.F67
setenv DCPHF21 /work/e283/e283/darren01/gamess/restart/aa002-water-pcseg2.F68
setenv ELNUINT /work/e283/e283/darren01/gamess/restart/aa002-water-pcseg2.F67
setenv NUNUINT /work/e283/e283/darren01/gamess/restart/aa002-water-pcseg2.F68
setenv GVVPT /work/e283/e283/darren01/gamess/restart/aa002-water-pcseg2.F69
setenv NUMOIN /work/e283/e283/darren01/gamess/restart/aa002-water-pcseg2.F69
setenv NUMOCAS /work/e283/e283/darren01/gamess/restart/aa002-water-pcseg2.F70
setenv NUELMO /work/e283/e283/darren01/gamess/restart/aa002-water-pcseg2.F71
setenv NUELCAS /work/e283/e283/darren01/gamess/restart/aa002-water-pcseg2.F72
setenv EPOVRLP /work/e283/e283/darren01/gamess/restart/aa002-water-pcseg2.F73
setenv RIVMAT /work/e283/e283/darren01/gamess/restart/aa002-water-pcseg2.F51
setenv RIT2A /work/e283/e283/darren01/gamess/restart/aa002-water-pcseg2.F52
setenv RIT3A /work/e283/e283/darren01/gamess/restart/aa002-water-pcseg2.F53
setenv RIT2B /work/e283/e283/darren01/gamess/restart/aa002-water-pcseg2.F54
setenv RIT3B /work/e283/e283/darren01/gamess/restart/aa002-water-pcseg2.F55
setenv KI /work/e283/e283/darren01/gamess/restart/aa002-water-pcseg2.F47
setenv BI /work/e283/e283/darren01/gamess/restart/aa002-water-pcseg2.F48
setenv PRMERI /work/e283/e283/darren01/gamess/restart/aa002-water-pcseg2.F49
setenv TRSERI /work/e283/e283/darren01/gamess/restart/aa002-water-pcseg2.F50
setenv PVP /work/e283/e283/darren01/gamess/restart/aa002-water-pcseg2.F51
setenv TPVPI /work/e283/e283/darren01/gamess/restart/aa002-water-pcseg2.F52
setenv TPVPJ /work/e283/e283/darren01/gamess/restart/aa002-water-pcseg2.F53
setenv PPVPP /work/e283/e283/darren01/gamess/restart/aa002-water-pcseg2.F54
setenv TPPVPP /work/e283/e283/darren01/gamess/restart/aa002-water-pcseg2.F55
setenv DEN2P1 /work/e283/e283/darren01/gamess/restart/aa002-water-pcseg2.F70
setenv DEN2P2 /work/e283/e283/darren01/gamess/restart/aa002-water-pcseg2.F71
setenv DEN2P3 /work/e283/e283/darren01/gamess/restart/aa002-water-pcseg2.F72
setenv DEN2P4 /work/e283/e283/darren01/gamess/restart/aa002-water-pcseg2.F73
setenv DEN2NM /work/e283/e283/darren01/gamess/restart/aa002-water-pcseg2.F74
setenv DEN2OPT /work/e283/e283/darren01/gamess/restart/aa002-water-pcseg2.F75
setenv GMCREF /work/e283/e283/darren01/gamess/restart/aa002-water-pcseg2.F70
setenv GMCO2R /work/e283/e283/darren01/gamess/restart/aa002-water-pcseg2.F71
setenv GMCROC /work/e283/e283/darren01/gamess/restart/aa002-water-pcseg2.F72
setenv GMCOOC /work/e283/e283/darren01/gamess/restart/aa002-water-pcseg2.F73
setenv GMCCC0 /work/e283/e283/darren01/gamess/restart/aa002-water-pcseg2.F74
setenv GMCHMA /work/e283/e283/darren01/gamess/restart/aa002-water-pcseg2.F75
setenv GMCEI1 /work/e283/e283/darren01/gamess/restart/aa002-water-pcseg2.F76
setenv GMCEI2 /work/e283/e283/darren01/gamess/restart/aa002-water-pcseg2.F77
setenv GMCEOB /work/e283/e283/darren01/gamess/restart/aa002-water-pcseg2.F78
setenv GMCEDT /work/e283/e283/darren01/gamess/restart/aa002-water-pcseg2.F79
setenv GMCERF /work/e283/e283/darren01/gamess/restart/aa002-water-pcseg2.F80
setenv GMCHCR /work/e283/e283/darren01/gamess/restart/aa002-water-pcseg2.F81
setenv GMCGJK /work/e283/e283/darren01/gamess/restart/aa002-water-pcseg2.F82
setenv GMCGAI /work/e283/e283/darren01/gamess/restart/aa002-water-pcseg2.F83
setenv GMCGEO /work/e283/e283/darren01/gamess/restart/aa002-water-pcseg2.F84
setenv GMCTE1 /work/e283/e283/darren01/gamess/restart/aa002-water-pcseg2.F85
setenv GMCTE2 /work/e283/e283/darren01/gamess/restart/aa002-water-pcseg2.F86
setenv GMCHEF /work/e283/e283/darren01/gamess/restart/aa002-water-pcseg2.F87
setenv GMCMOL /work/e283/e283/darren01/gamess/restart/aa002-water-pcseg2.F88
setenv GMCMOS /work/e283/e283/darren01/gamess/restart/aa002-water-pcseg2.F89
setenv GMCWGT /work/e283/e283/darren01/gamess/restart/aa002-water-pcseg2.F90
setenv GMCRM2 /work/e283/e283/darren01/gamess/restart/aa002-water-pcseg2.F91
setenv GMCRM1 /work/e283/e283/darren01/gamess/restart/aa002-water-pcseg2.F92
setenv GMCR00 /work/e283/e283/darren01/gamess/restart/aa002-water-pcseg2.F93
setenv GMCRP1 /work/e283/e283/darren01/gamess/restart/aa002-water-pcseg2.F94
setenv GMCRP2 /work/e283/e283/darren01/gamess/restart/aa002-water-pcseg2.F95
setenv GMCVEF /work/e283/e283/darren01/gamess/restart/aa002-water-pcseg2.F96
setenv GMCDIN /work/e283/e283/darren01/gamess/restart/aa002-water-pcseg2.F97
setenv GMC2SZ /work/e283/e283/darren01/gamess/restart/aa002-water-pcseg2.F98
setenv GMCCCS /work/e283/e283/darren01/gamess/restart/aa002-water-pcseg2.F99
unset echo
 
Assuming a single but multicore node.
 
/work/e283/e283/darren01/gamess/ddikick.x /work/e283/e283/darren01/gamess/gamess.00.x aa002-water-pcseg2 -ddi 1 8 nid003555:cpus=8 -scr /work/e283/e283/darren01/gamess/restart

 Distributed Data Interface kickoff program.
 Initiating 8 compute processes on 1 nodes to run the following command:
 /work/e283/e283/darren01/gamess/gamess.00.x aa002-water-pcseg2 

          *******************************************************
          *                                                     *
          *      GAMESS VERSION = 15 JUL 2024 (R2 Patch 1)          *
          *                                                     *
          *              doi.org/10.1063/5.0005188              *
          *                                                     *
          **************** 64 BIT LINUX VERSION *****************

  GAMESS HAS BEEN MADE POSSIBLE WITH IMPORTANT CONTRIBUTIONS FROM
  THE FOLLOWING INDIVIDUALS (IN ALPHABETICAL ORDER):

     IVANA ADAMOVIC, CHRISTINE AIKENS, TOMOKO AKAMA,
     MELISA ALKAN, YURI ALEXEEV, YURIKO AOKI, POOJA ARORA,
     TOSHIO ASADA, ANDREY ASADCHEV, KIM K. BALDRIDGE,
     PRADIPTA BANDYOPADHYAY, TAYLOR A. BARNES, MARIA BARYSZ,
     ROB BELL, JONATHAN BENTZ, COLLEEN BERTONI,
     JERRY A. BOATZ, BRETT BODE, KURT BRORSEN, KURT R. BRORSEN,
     LAIMUTIS BYTAUTAS, CALEB CARLIN, LAURA CARRINGTON,
     GALINA CHABAN, BENOIT CHAMPAGNE, WEI CHEN, MAHITO CHIBA,
     DAN CHIPMAN, CHEOL HO CHOI, TANNER CULPITT,
     DIPAYAN DATTA, PAUL DAY, ALBERT DEFUSCO,
     NUWAN DESILVA, J. EMILIANO DEUSTUA,
     TIM DUDLEY, MICHEL DUPUIS, STEVEN T. ELBERT,
     DMITRI FEDOROV, KATHERINE FERRERAS, MICHAEL FILATOV,
     ALEX FINDLATER,GRAHAM FLETCHER, MARK FREITAG,
     CHRISTIAN FRIEDL, DAVID GARMER, 
     IGOR S. GERASIMOV, KURT GLAESEMANN,
     MARK S. GORDON, JEFFREY R. GOUR, FENG LONG GU,
     EMILIE B. GUIDEZ, ANASTASIA GUNINA, SHARON HAMMES-SCHIFFER,
     MASATAKE HARUTA, KIMIHIKO HIRAO, YASUHIRO IKABATA,
     TZVETELIN IORDANOV, STEPHAN IRLE, KAZUYA ISHIMURA,
     JOE IVANIC, FRANK JENSEN, JAN H. JENSEN, VISVALDAS KAIRYS,
     MUNEAKI KAMIYA, MICHIO KATOUDA, NAOAKI KAWAKAMI, DAN KEMP,
     BERNARD KIRTMAN, KAZUO KITAURA, MARIUSZ KLOBUKOWSKI,
     MASATO KOBAYASHI, KONSTANTIN KOMAROV, PRAKASHAN KORAMBATH,
     JACEK KORCHOWIEC, SHIRO KOSEKI, KAROL KOWALSKI,
     JIMMY KROMANN, STANISLAW A. KUCHARSKI, HENRY KURTZ,
     SAROM SOK LEANG, SEUNGHOON LEE, HUI LI, SHUHUA LI, WEI LI,
     JESSE J. LUTZ, ALEKSANDR O. LYKHIN,
     ILIAS MAGOULAS, MARCIN MAKOWSKI,
     JOANI MATO, NIKITA MATSUNAGA, BENEDETTA MENNUCCI,
     GRANT MERRILL, NORIYUKI MINEZAWA, VLADIMIR MIRONOV,
     EISAKU MIYOSHI, JOHN A. MONTGOMERY JR., HIROTOSHI MORI,
     JONATHAN MULLIN, MONIKA MUSIAL, SHIGERU NAGASE,
     TAKESHI NAGATA, HIROMI NAKAI, TAKAHITO NAKAJIMA,
     YUYA NAKAJIMA, HARUYUKI NAKANO, HIROYA NAKATA, SEAN NEDD,
     HEATHER NETZLOFF, KIET A. NGUYEN, YOSHIO NISHIMOTO,
     BOSILJKA NJEGIC, RYAN OLSON, MIKE PAK, ROBERTO PEVERATI,
     BUU PHAM, PIOTR PIECUCH, ANNA POMOGAEVA, DAVID POOLE,
     SPENCER PRUITT, OLIVIER QUINET, LUKE ROSKOP,
     KLAUS RUEDENBERG, ANDREW SAND, TOSAPORN SATTASATHUCHANA,
     NOZOMI SAWADA, MICHAEL W. SCHMIDT, PATRICK E. SCHNEIDER,
     JUNJI SEINO, PRACHI SHARMA, JUN SHEN, JIM SHOEMAKER,
     GEORGE SCHOENDORFF, YINAN SHU, DEJUN SI, JONATHAN SKONE,
     LYUDMILA SLIPCHENKO, TONY SMITH, JIE SONG, MARK SPACKMAN,
     CASPER STEINMANN, WALT STEVENS, PEIFENG SU, SHUJUN SU,
     CHET SWALINA, CHINAMI TAKASHIMA, TETSUYA TAKETSUGU,
     ZHEN TAO, NANDUN THELLAMUREGE, ANANTA TIWARI,
     SEIKEN TOKURA, JACOPO TOMASI,
     TSUGUKI TOUMA, TAKAO TSUNEDA, HIROAKI UMEDA,
     JORGE LUIS GALVEZ VALLEJO, YALI WANG, SIMON WEBB,
     AARON WEST, THERESA L. WINDUS, MARTA WLOCH,
     PENG XU, KIYOSHI YAGI, SUSUMU YANAGISAWA, YANG YANG,
     SOOHAENG YOO, TAKESHI YOSHIKAWA, FEDERICO ZAHARIEV,
     TOBY ZENG

  WHO ARE SUPPORTED BY THEIR INSTITUTION/UNIVERSITY/COMPANY/GROUP
  (IN ALPHABETICAL ORDER):

     EP ANALYTICS,
     FACULTES UNIVERSITAIRES NOTRE-DAME DE LA PAIX,
     INSTITUTE FOR MOLECULAR SCIENCE, IOWA STATE UNIVERSITY,
     JACKSON STATE UNIVERSITY, JOHANNES KEPLER UNIVERSITY LINZ,
     KYUNGPOOK NATIONAL UNIVERSITY
     KYUSHU UNIVERSITY, MICHIGAN STATE UNIVERSITY,
     MIE UNIVERSITY, THE MOLECULAR SCIENCES SOFTWARE INSTITUTE,
     MOSCOW STATE UNIVERSITY,
     N. COPERNICUS UNIVERSITY, NAGOYA UNIVERSITY,
     NANJING UNIVERSITY, NAT. INST. OF ADVANCED INDUSTRIAL
     SCIENCE AND TECHNOLOGY, NATIONAL INST. OF STANDARDS AND
     TECHNOLOGY, NESMEYANOV INSTITUTE OF ORGANOELEMENT COMPOUNDS
     OF RUSSIAN ACADEMY OF SCIENCES, OSAKA PREFECTURE UNIVERSITY,
     PENNSYLVANIA STATE UNIVERSITY, TOKYO INSTITUTE OF TECHNOLOGY,
     UNIVERSITY OF AARHUS, UNIVERSITY OF ALBERTA,
     UNIVERSITY OF CALIFORNIA AT SANTA BARBARA,
     UNIVERSITY OF COPENHAGEN, UNIVERSITY OF IOWA,
     UNIVERSITY OF MEMPHIS, UNIVERSITY OF MINNESOTA,
     UNIVERSITY OF NEBRASKA, UNIVERSITY OF NEW ENGLAND,
     UNIVERSITY OF NOTRE DAME, UNIVERSITY OF PISA,
     UNIVERSITY OF SILESIA, UNIVERSITY OF TOKYO,
     UNIVERSITY OF ZURICH, WASEDA UNIVERSITY,
     YALE UNIVERSITY

  GAMESS SOFTWARE MANAGEMENT TEAM FOR THIS RELEASE:
     MARK S. GORDON (TEAM LEAD),
     BRETT BODE (SENIOR ADVISOR),
     GIUSEPPE BARCA,
     COLLEEN BERTONI,
     KRISTOPHER KEIPERT (ADVISOR),
     SAROM S. LEANG (DEVELOPMENT LEAD),
     BUU PHAM,
     JACKSON HAYES (WEBSITE ADMINISTRATOR),
     PENG XU


 PARALLEL VERSION RUNNING ON        8 PROCESSORS IN        1 NODES.

 EXECUTION OF GAMESS BEGUN 14:47:00 12-SEP-2026    

            ECHO OF THE FIRST FEW INPUT CARDS -
 INPUT CARD>! H2O | aa002-water-pcseg2: SINGLE POINT at wB97X-D/PCseg-2/PCM(water)          
 INPUT CARD>!                                                                               
 INPUT CARD>! Single-point energy (RUNTYP=ENERGY, no optimization) at the confirmed         
 INPUT CARD>! genuine minimum for standalone water, geometry taken from                     
 INPUT CARD>! aa002-water-bare.log (EXECUTION TERMINATED NORMALLY, sensible                 
 INPUT CARD>! frequencies: 1535.62, 3832.92, 3971.16 cm-1 -- bend, symmetric                
 INPUT CARD>! stretch, asymmetric stretch).                                                 
 INPUT CARD>!                                                                               
 INPUT CARD>! Native GBASIS=PCSEG-2, ISPHER=1 mandatory -- same recipe used                 
 INPUT CARD>! throughout this project. Part of the standalone hydration                     
 INPUT CARD>! thermodynamic cycle: dG_hyd = G(hydrate) - [G(aldehyde) + G(water)].          
 INPUT CARD>                                                                                
 INPUT CARD> $CONTRL SCFTYP=RHF RUNTYP=ENERGY DFTTYP=wB97X-D                                
 INPUT CARD>         NOSYM=1 ISPHER=1                                                       
 INPUT CARD> $END                                                                           
 INPUT CARD> $GUESS GUESS=HUCKEL $END                                                       
 INPUT CARD> $BASIS GBASIS=PCSEG-2 $END                                                     
 INPUT CARD> $SCF CONV=1.0D-6                                                               
 INPUT CARD>     SOSCF=.T.                                                                  
 INPUT CARD>     DAMP=.F.                                                                   
 INPUT CARD>     SHIFT=.T.                                                                  
 INPUT CARD>     DIRSCF=.TRUE.                                                              
 INPUT CARD> $END                                                                           
 INPUT CARD> $PCM SOLVNT=WATER $END                                                         
 INPUT CARD> $SYSTEM MWORDS=50 MEMDDI=50 $END                                               
 INPUT CARD>                                                                                
 INPUT CARD> $DATA                                                                          
 INPUT CARD>Water, standalone, single point at PCseg-2                                      
 INPUT CARD>C1                                                                              
 INPUT CARD>O     8.0   3.5495873684   2.8299867725  -4.6307952672                          
 INPUT CARD>H     1.0   3.0676840612   3.5164803179  -5.1010477598                          
 INPUT CARD>H     1.0   3.2478880947   2.8601182355  -3.7183548083                          
 INPUT CARD> $END                                                                           
     50000000 WORDS OF MEMORY AVAILABLE

     BASIS OPTIONS
     -------------
     GBASIS=PCSEG-2      IGAUSS=       0      POLAR=NONE    
     NDFUNC=       0     NFFUNC=       0     DIFFSP=       F
     NPFUNC=       0      DIFFS=       F     BASNAM=        


     RUN TITLE
     ---------
 Water, standalone, single point at PCseg-2                                      

 THE POINT GROUP OF THE MOLECULE IS C1      
 THE ORDER OF THE PRINCIPAL AXIS IS     0

 ATOM      ATOMIC                      COORDINATES (BOHR)
           CHARGE         X                   Y                   Z
 O           8.0     6.7077474958        5.3478995489       -8.7509341602
 H           1.0     5.7970822926        6.6451842420       -9.6395825163
 H           1.0     6.1376185378        5.4048397576       -7.0266717128

          INTERNUCLEAR DISTANCES (ANGS.)
          ------------------------------

                1 O          2 H          3 H     

   1 O       0.0000000    0.9615829 *  0.9614978 *
   2 H       0.9615829 *  0.0000000    1.5411439 *
   3 H       0.9614978 *  1.5411439 *  0.0000000  

  * ... LESS THAN  3.000


     ATOMIC BASIS SET
     ----------------
 THE CONTRACTED PRIMITIVE FUNCTIONS HAVE BEEN UNNORMALIZED
 THE CONTRACTED BASIS FUNCTIONS ARE NOW NORMALIZED TO UNITY

  SHELL TYPE  PRIMITIVE        EXPONENT          CONTRACTION COEFFICIENT(S)

 O         

      1   S       1         13588.7000000    0.000593260945
      1   S       2          2038.4700000    0.004584094623
      1   S       3           464.0410000    0.023487532205
      1   S       4           131.3390000    0.090483410714
      1   S       5            42.5340000    0.254848532066
      1   S       6            15.0429000    0.445731087262
      1   S       7             5.4661600    0.328246178743

      2   S       8            10.0915000   -0.216387438825
      2   S       9             1.1042900    1.081029129655

      3   S      10             0.4480820    1.000000000000

      4   S      11             0.1753250    1.000000000000

      5   P      12            60.8220000    0.012571846281
      5   P      13            14.0332000    0.089401069221
      5   P      14             4.1824400    0.334281969953
      5   P      15             1.4249000    0.692089444296

      6   P      16             0.4787410    1.000000000000

      7   P      17             0.1462570    1.000000000000

      8   D      18             2.2000000    1.000000000000

      9   D      19             0.6500000    1.000000000000

     10   F      20             1.1000000    1.000000000000

 H         

     11   S      21            75.4732000    0.006633673656
     11   S      22            11.3575000    0.050962967872
     11   S      23             2.6008100    0.247437216649
     11   S      24             0.7355030    0.775286119168

     12   S      25             0.2317610    1.000000000000

     13   S      26             0.0741675    1.000000000000

     14   P      27             1.6000000    1.000000000000

     15   P      28             0.4500000    1.000000000000

     16   D      29             1.2500000    1.000000000000

 H         

     17   S      30            75.4732000    0.006633673656
     17   S      31            11.3575000    0.050962967872
     17   S      32             2.6008100    0.247437216649
     17   S      33             0.7355030    0.775286119168

     18   S      34             0.2317610    1.000000000000

     19   S      35             0.0741675    1.000000000000

     20   P      36             1.6000000    1.000000000000

     21   P      37             0.4500000    1.000000000000

     22   D      38             1.2500000    1.000000000000

 TOTAL NUMBER OF BASIS SET SHELLS             =   22
 NUMBER OF CARTESIAN GAUSSIAN BASIS FUNCTIONS =   65
 NOTE: THIS RUN WILL RESTRICT THE MO VARIATION SPACE TO SPHERICAL HARMONICS.
 THE NUMBER OF ORBITALS KEPT IN THE VARIATIONAL SPACE WILL BE PRINTED LATER.
 NUMBER OF ELECTRONS                          =   10
 CHARGE OF MOLECULE                           =    0
 SPIN MULTIPLICITY                            =    1
 NUMBER OF OCCUPIED ORBITALS (ALPHA)          =    5
 NUMBER OF OCCUPIED ORBITALS (BETA )          =    5
 TOTAL NUMBER OF ATOMS                        =    3
 THE NUCLEAR REPULSION ENERGY IS        9.1488590585

 SELECTED MURRAY-HANDY-LAMING RADIAL GRID

 LEGACY BECKE'S FUZZY CELL METHOD

 SELECTED ORIGINAL BECKE'S PARTITION FUNCTION

     LEBEDEV GRID-BASED DFT OPTIONS
     ------------------------------
     DFTTYP=WB97X-D 
     NRAD  =      96     NLEB  =     302
     NRAD0 =      24     NLEB0 =     110
     SWOFF =    5.00E-03 (PURE SCF -> DFT)
     SWITCH=    3.00E-04 (COARSE -> TIGHT GRID)
     THRESH=    0.00E+00 GTHRE=    1.00E+00

     LC/CAM PARAMETERS
     -----------------
     ALPHAC =.22204  BETAC =.77796  CAMMU = 0.200  CAMVWN =  0.00  CAMLYP =  0.00

 GRIMME'S EMPIRICAL DISPERSION CORRECTION= T
  ________________________________

           DFTD3 V1.2             
   S.GRIMME, UNIVERSITY MUENSTER  
   WED MAR 10 08:38:00 CET 2010   
  ________________________________

 PLEASE CITE DFT-D2 WORK DONE WITH THIS CODE AS:
 S. GRIMME, J. COMPUT. CHEM., 27 (2006), 1787-1799

 DFT-D2 PARAMETERS WILL BE LOADED AND PRINTED
 BEFORE THE RESULTS

 IMPLEMENTATION OF DFT-D IN GAMESS BY:
 R.PEVERATI AND K.K.BALDRIDGE, 
 J.CHEM.THEORY COMPUT. 4,(2008), 2030-2048


     $CONTRL OPTIONS
     ---------------
 SCFTYP=RHF          RUNTYP=ENERGY       EXETYP=RUN     
 MPLEVL=       0     CITYP =NONE         CCTYP =NONE         VBTYP =NONE    
 DFTTYP=WB97X-D      TDDFT =NONE    
 MULT  =       1     ICHARG=       0     NZVAR =       0     COORD =UNIQUE  
 PP    =NONE         RELWFN=NONE         LOCAL =NONE         NUMGRD=       F
 ISPHER=       1     NOSYM =       1     MAXIT =      30     UNITS =ANGS    
 PLTORB=       F     MOLPLT=       F     AIMPAC=       F     FRIEND=        
 NPRINT=       7     IREST =       0     GEOM  =INPUT   
 NORMF =       0     NORMP =       0     ITOL  =      20     ICUT  =       9
 INTTYP=BEST         GRDTYP=BEST         QMTTOL= 1.0E-06

     $SYSTEM OPTIONS
     ---------------
  REPLICATED MEMORY=    50000000 WORDS (ON EVERY NODE).
 DISTRIBUTED MEMDDI=          50 MILLION WORDS IN AGGREGATE,
 MEMDDI DISTRIBUTED OVER   8 PROCESSORS IS     6250000 WORDS/PROCESSOR.
 TOTAL MEMORY REQUESTED ON EACH PROCESSOR=    56250000 WORDS.
 TIMLIM=      525600.00 MINUTES, OR     365.0 DAYS.
 PARALL= T  BALTYP=  DLB     KDIAG=    0  COREFL= F
 MXSEQ2=     300 MXSEQ3=     150  mem10=         0  mem22=         0

 ** LOOKING UP INTERNALLY STORED DATA FOR SOLVENT=WATER    **
 OPTICAL AND PHYSICAL CONSTANTS:
 EPS= 78.390; EPSINF=  1.776; RSOLV=  1.385 A; VMOL=  18.070 ML/MOL;
 TCE= .25700E-03 1/K; STEN= 71.810 DYN/CM;  DSTEN=  0.6500; CMF=  1.2770


     -----------------------------------
     INPUT FOR PCM SOLVATION CALCULATION 
     -----------------------------------
     IEF   =     -10
     ICOMP =       0     IFIELD=       0     ICAV  =       0
     IDISP =       0     IREP  =       0     IDP   =       0

     SOLVNT=WATER        EPS   = 78.3900     EPSINF=  1.7760
     VMOL  = 18.0700     TCE   =  0.00025700 STEN  = 71.8100
     DSTEN =  0.6500     CMF   =  1.2770     RSOLV =  1.3850

     NESFP =       0
     OMEGA = 40.0000     RET   =100.0000     FRO   =  0.7000

     TABS  =298.0000     IPRINT=       0

     --------------------------------
     INPUT FOR ITERATIVE C-PCM METHOD 
     --------------------------------
     IPCMIT  =         1     MXDIIS  =        50
     MXITR1  =        50     MXITR2  =        50
     THRES   = 0.100E-09     IMUL    =         3
     RCUT(1) =   15.0000     RCUT(2) =   30.0000

     IDIRCT  =         1
     IMGABI  =         0     RABI    =    4.0000
     IMGASC  =         0     RASC    =   20.0000
     THRSLS  = 0.500E-03     DENSLS  =    0.0100
     IEFPOL  =         1     REFPOL  =    0.0000

     INPUT FOR ISOTROPIC DIELECTRICS
     -------------------------------
     EPS=    78.39

     INPUT FOR CAVITY DEFINITION 
     ---------------------------
   ATOM               COORDINATES                RADIUS       EPS
      1      3.5496      2.8300     -4.6308      1.5000     78.3900
      2      3.0677      3.5165     -5.1010      1.2000     78.3900
      3      3.2479      2.8601     -3.7184      1.2000     78.3900

     ----------------------------
     INPUT FOR TESSERA DEFINITION
     ----------------------------
     NTSALL  =        60     MTHALL  =         4
     MTHAUT  =         0     AUTFRE  =    2.0000
     NTSFRZ  =        60     KEEPSM  =         0
     AREAKP  =   10.0000     BONDRY  =    1.0000
     AREATL  =    0.0100

     SPHERE     INITS       METHOD
          1        60       FIXPVA
          2        60       FIXPVA
          3        60       FIXPVA

     ------------------------------
      FIXPVA TESSELLATION FOR PCM
         PEIFENG SU AND HUI LI
     UNIVERSITY OF NEBRASKA-LINCOLN
     ------------------------------


 PCM DIMENSIONS: MXSP=  2000, MXTS=       180, MEMORY=         25963

          ----------------
          PROPERTIES INPUT
          ----------------

     MOMENTS            FIELD           POTENTIAL          DENSITY
 IEMOM =       1   IEFLD =       0   IEPOT =       0   IEDEN =       0
 WHERE =COMASS     WHERE =NUCLEI     WHERE =NUCLEI     WHERE =NUCLEI  
 OUTPUT=BOTH       OUTPUT=BOTH       OUTPUT=BOTH       OUTPUT=BOTH    
 IEMINT=       0   IEFINT=       0                     IEDINT=       0
                                                       MORB  =       0
          EXTRAPOLATION IN EFFECT
          LEVEL SHIFTING IN EFFECT
          SOSCF IN EFFECT
 ORBITAL PRINTING OPTION: NPREO=     1    65     2     1

     ----------------------
     TARGET OFFLOAD OPTIONS
     ----------------------
     RHF    =       F
     CPHF    =       F
     MAKEFP =       F

     -------------------------------
     INTEGRAL TRANSFORMATION OPTIONS
     -------------------------------
     NWORD  =            0
     CUTTRF = 1.0E-09     MPTRAN =       0
     DIRTRF =       T     AOINTS =DUP     

          ----------------------
          INTEGRAL INPUT OPTIONS
          ----------------------
 NOPK  =       1 NORDER=       0 SCHWRZ=       T

     ------------------------------------------
     THE POINT GROUP IS C1 , NAXIS= 1, ORDER= 1
     ------------------------------------------

 -- VARIATIONAL SPACE WILL BE RESTRICTED TO PURE SPHERICAL HARMONICS ONLY --
 AFTER EXCLUDING CONTAMINANT COMBINATIONS FROM THE CARTESIAN GAUSSIAN BASIS
 SET, THE NUMBER OF SPHERICAL HARMONICS KEPT IN THE VARIATION SPACE IS   58

     DIMENSIONS OF THE SYMMETRY SUBSPACES ARE
 A   =   58

 ..... DONE SETTING UP THE RUN .....
 CPU     0: STEP CPU TIME=     0.03 TOTAL CPU TIME=          0.0 (      0.0 MIN)
 TOTAL WALL CLOCK TIME=          0.1 SECONDS, CPU UTILIZATION IS    55.80%

          ********************
          1 ELECTRON INTEGRALS
          ********************
 ...... END OF ONE-ELECTRON INTEGRALS ......
 CPU     0: STEP CPU TIME=     0.00 TOTAL CPU TIME=          0.0 (      0.0 MIN)
 TOTAL WALL CLOCK TIME=          0.1 SECONDS, CPU UTILIZATION IS    51.61%

          -------------
          GUESS OPTIONS
          -------------
          GUESS =HUCKEL            NORB  =       0          NORDER=       0
          MIX   =       F          PRTMO =       F          PUNMO =       F
          TOLZ  = 1.0E-08          TOLE  = 1.0E-05
          SYMDEN=       F          PURIFY=       F

 INITIAL GUESS ORBITALS GENERATED BY HUCKEL   ROUTINE.
 HUCKEL GUESS REQUIRES     33070 WORDS.

 STATISTICS FOR GENERATION OF SYMMETRY ORBITAL -Q- MATRIX
 NUMBER OF CARTESIAN ATOMIC ORBITALS=         65
 NUMBER OF SPHERICAL CONTAMINANTS DROPPED=     7
 NUMBER OF LINEARLY DEPENDENT MOS DROPPED=     0
 TOTAL NUMBER OF MOS IN VARIATION SPACE=      58

 SYMMETRIES FOR INITIAL GUESS ORBITALS FOLLOW.   BOTH SET(S).
     5 ORBITALS ARE OCCUPIED (    1 CORE ORBITALS).
     2=A        3=A        4=A        5=A        6=A        7=A        8=A   
     9=A       10=A       11=A       12=A       13=A       14=A       15=A   
 ...... END OF INITIAL ORBITAL SELECTION ......
 CPU     0: STEP CPU TIME=     0.00 TOTAL CPU TIME=          0.0 (      0.0 MIN)
 TOTAL WALL CLOCK TIME=          0.2 SECONDS, CPU UTILIZATION IS    16.61%

                    ----------------------
                    AO INTEGRAL TECHNOLOGY
                    ----------------------
     S,P,L SHELL ROTATED AXIS INTEGRALS, REPROGRAMMED BY
        KAZUYA ISHIMURA (IMS) AND JOSE SIERRA (SYNSTAR).
     S,P,D,L SHELL ROTATED AXIS INTEGRALS PROGRAMMED BY
        KAZUYA ISHIMURA (INSTITUTE FOR MOLECULAR SCIENCE).
     S,P,D,F,G SHELL TO TOTAL QUARTET ANGULAR MOMENTUM SUM 5,
        ERIC PROGRAM BY GRAHAM FLETCHER (ELORET AND NASA ADVANCED
        SUPERCOMPUTING DIVISION, AMES RESEARCH CENTER).
     S,P,D,F,G,L SHELL GENERAL RYS QUADRATURE PROGRAMMED BY
        MICHEL DUPUIS (PACIFIC NORTHWEST NATIONAL LABORATORY).

          --------------------------------
          2 ELECTRON LC EXCHANGE INTEGRALS
          --------------------------------

 DIRECT SCF METHOD SKIPS INTEGRAL STORAGE ON DISK.
 DIRECT TRANSFORMATION SKIPS AO INTEGRAL STORAGE ON DISK.
  ...... END OF TWO-ELECTRON INTEGRALS .....
 CPU     0: STEP CPU TIME=     0.01 TOTAL CPU TIME=          0.0 (      0.0 MIN)
 TOTAL WALL CLOCK TIME=          0.2 SECONDS, CPU UTILIZATION IS    18.99%

          --------------------
          2 ELECTRON INTEGRALS
          --------------------

 DIRECT SCF METHOD SKIPS INTEGRAL STORAGE ON DISK.
 DIRECT TRANSFORMATION SKIPS AO INTEGRAL STORAGE ON DISK.
  ...... END OF TWO-ELECTRON INTEGRALS .....
 CPU     0: STEP CPU TIME=     0.00 TOTAL CPU TIME=          0.0 (      0.0 MIN)
 TOTAL WALL CLOCK TIME=          0.2 SECONDS, CPU UTILIZATION IS    19.00%

          --------------------------
           R-WB97X-D SCF CALCULATION
          --------------------------

     NUCLEAR ENERGY =         9.1488590585
     MAXIT =   30     NPUNCH=    2
     EXTRAP=T  DAMP=F  SHIFT=T  RSTRCT=F  DIIS=F  DEM=F  SOSCF=T
         DENSITY MATRIX CONVERGENCE THRESHOLD=  2.00E-06
     COARSE -> FINE DFT GRID SWITCH THRESHOLD=  3.00E-04 (SWITCH IN $DFT)
                   HF -> DFT SWITCH THRESHOLD=  5.00E-03 (SWOFF IN $DFT)
     SOSCF WILL OPTIMIZE     265 ORBITAL ROTATIONS, SOGTOL=   0.250
     MEMORY REQUIRED FOR RHF ITERS=    224399 WORDS.

 DIRECT SCF CALCULATION, SCHWRZ=T   FDIFF=T,  DIRTHR=  0.00E+00 NITDIR=10
 SCHWARZ INEQUALITY OVERHEAD:      2145 INTEGRALS, T=        0.00

 DFT CODE IS SWITCHING FROM THE FINE GRID NRAD= 96,  NLEB=  302
                      TO THE COARSE GRID NRAD0= 24, NLEB0=  110

     EXCHANGE FUNCTIONAL   =WB97X-D   
     CORRELATION FUNCTIONAL=WB97X-D   
     DFT THRESHOLD         =.460E-07
     GRID CHANGE THRESHOLD =.300E-03
 FOR AN EULER-MACLAURIN QUADRATURE USING  96 RADIAL POINTS:
 SMALLEST GAUSSIAN PRIMITIVE EXPONENT=        0.0741675000 OF TYPE -S-
 ON ATOM NUMBER   2 HAS RADIAL NORMALIZATION=  1.000000
  LARGEST GAUSSIAN PRIMITIVE EXPONENT=    13588.7000000000 OF TYPE -S-
 ON ATOM NUMBER   1 HAS RADIAL NORMALIZATION=  1.000000
 DFT IS SWITCHED OFF, PERFORMING PURE SCF UNTIL SWOFF THRESHOLD IS REACHED.

                                                                                                                   NONZERO     BLOCKS
 ITER EX DEM     TOTAL ENERGY        E CHANGE  DENSITY CHANGE     ORB. GRAD      VIR. SHIFT       DAMPING        INTEGRALS    SKIPPED
   1  0  0      -75.7633603863   -75.7633603863   0.201061509   0.000000000     0.000000000     1.000000000        2117869          0
          ---------------START SECOND ORDER SCF---------------
   2  1  0      -76.0423326506    -0.2789722642   0.030417324   0.038555848     0.000000000     0.000000000        2117869          0
   3  2  0      -76.0571812245    -0.0148485739   0.016783771   0.011895776     0.000000000     0.000000000        2117869          0
   4  3  0      -76.0587449417    -0.0015637172   0.005076480   0.006445428     0.000000000     0.000000000        2117869          0
   5  4  0      -76.0588793881    -0.0001344465   0.001061033   0.001610198     0.000000000     0.000000000        2117869          0
 CONVERGED TO SWOFF, SO DFT CALCULATION IS NOW SWITCHED ON.
          ---------------START SECOND ORDER SCF---------------
   6  5  0      -76.4384608799    -0.3795814918   0.030859657   0.038379305        2115109          0
   7  6  0      -76.4422334793    -0.0037725994   0.008428787   0.006279445        2115109          0
   8  7  0      -76.4423878024    -0.0001543230   0.002144660   0.003249512        2115109          0
   9  8  0      -76.4424410542    -0.0000532518   0.000424076   0.000476262        2115109          0
  10  9  0      -76.4424418409    -0.0000007867   0.000092957   0.000089395        2115109          0
 DFT CODE IS SWITCHING BACK TO THE FINE GRID
          ---------------START SECOND ORDER SCF---------------
  11 10  0      -76.4412619083     0.0011799326   0.000863206   0.001165977        2115109          0
  12 11  0      -76.4412653928    -0.0000034845   0.000288709   0.000170261        2115109          0
  13 12  0      -76.4412655611    -0.0000001683   0.000093481   0.000086689        2115109          0
  14 13  0      -76.4412656129    -0.0000000518   0.000017950   0.000012638        2115064          1
  15 14  0      -76.4412656137    -0.0000000008   0.000006501   0.000003205        2115064          1
  16 15  0      -76.4412656138    -0.0000000001   0.000000800   0.000000919        2110303         18
  17 16  0      -76.4412656138    -0.0000000000   0.000000292   0.000000233        2103154         57

          -----------------
          DENSITY CONVERGED
          -----------------
     TIME TO FORM FOCK OPERATORS=       0.9 SECONDS (       0.1 SEC/ITER)
     FOCK TIME ON FIRST ITERATION=       0.0, LAST ITERATION=       0.1
     TIME TO SOLVE SCF EQUATIONS=       0.0 SECONDS (       0.0 SEC/ITER)

          ----------------------------
          DFT-D PARAMETERS AND RESULTS
          ----------------------------
 C6 COEFFICIENTS USED:
       1 C6 FOR ELEMENT   1
  Z=  1 C6(AA)=    2.43
       1 C6 FOR ELEMENT   8
  Z=  8 C6(AA)=   12.14

 #          XYZ [AU]             R0(AA) [ANG.]  CN         C6(AA)     C8(AA)   C10(AA) [AU]
  1   6.70775   5.34790  -8.75093    8  1.220  1.988        12.1       245.0      6057.3
  2   5.79708   6.64518  -9.63958    1  0.910  0.995         2.4        29.4       434.7
  3   6.13762   5.40484  -7.02667    1  0.910  0.995         2.4        29.4       434.7

     MOLECULAR C6(AA) [AU] =        43.57

           DFT-D V2

 FUNCTIONAL: WB97X-D 

 PARAMETERS
 S6       :    1.0000
 RS6      :    1.1000
 USING CHAI-HEAD-GORDON DAMPING FUNCTION
 ALPHA6   :    6.0000

 EDISP /KCAL,AU:    -0.0186 -0.00002967

 E6    /KCAL :    -0.0186

 FINAL R-WB97X-D ENERGY IS      -76.4412952803 AFTER  17 ITERATIONS
 DFT EXCHANGE + CORRELATION ENERGY =        -6.4832307424
 TOTAL ELECTRON NUMBER             =        10.0000098501
 GRIMME'S DISPERSION ENERGY                     =       -0.0000296665
 ENERGY WITHOUT GRIMME'S DISPERSION CORRECTION IS      -76.4412656138

 Alpha HOMO=   -10.983317 eV, LUMO=    2.222217 eV, gap=   13.205534 eV

          ------------
          EIGENVECTORS
          ------------

                      1          2          3          4          5
                  -19.2482    -1.1126    -0.6246    -0.4762    -0.4036
                     A          A          A          A          A   
    1  O  1  S    0.996048  -0.228594   0.000009  -0.083898  -0.000000
    2  O  1  S    0.022975   0.332583  -0.000018   0.126696  -0.000002
    3  O  1  S   -0.009539   0.379721  -0.000005   0.203464   0.000013
    4  O  1  S    0.003339   0.139083   0.000037   0.222522   0.000039
    5  O  1  X   -0.001132  -0.058525   0.046753   0.295881   0.356063
    6  O  1  Y    0.001035   0.053516  -0.170341  -0.270584   0.323283
    7  O  1  Z    0.000639   0.033046   0.358887  -0.166982   0.107057
    8  O  1  X    0.000492  -0.032128   0.033792   0.232547   0.298447
    9  O  1  Y   -0.000450   0.029381  -0.123148  -0.212669   0.270987
   10  O  1  Z   -0.000278   0.018132   0.259483  -0.131230   0.089737
   11  O  1  X   -0.000249  -0.003277   0.010095   0.123222   0.197308
   12  O  1  Y    0.000228   0.002997  -0.036819  -0.112688   0.179161
   13  O  1  Z    0.000141   0.001850   0.077608  -0.069538   0.059331
   14  O  1 XX   -0.000114  -0.001555  -0.001578  -0.000367  -0.004517
   15  O  1 YY   -0.000056  -0.000777  -0.005255  -0.000098   0.003750
   16  O  1 ZZ    0.000170   0.002332   0.006833   0.000465   0.000767
   17  O  1 XY   -0.000185  -0.002945   0.004151   0.005221   0.000017
   18  O  1 XZ   -0.000038  -0.000724  -0.006476   0.002743   0.000688
   19  O  1 YZ   -0.000126  -0.001646   0.004519  -0.001496   0.002054
   20  O  1 XX   -0.000125   0.000103  -0.001911  -0.002365  -0.016290
   21  O  1 YY   -0.000058   0.000013  -0.006358  -0.000933   0.013524
   22  O  1 ZZ    0.000183  -0.000116   0.008269   0.003297   0.002766
   23  O  1 XY    0.000046  -0.002582   0.005017   0.012990   0.000059
   24  O  1 XZ    0.000081  -0.001317  -0.007833   0.007499   0.002480
   25  O  1 YZ   -0.000185   0.000627   0.005463  -0.005772   0.007402
   26  O  1 XXX   0.000156  -0.000440  -0.000510  -0.002056  -0.000230
   27  O  1 YYY  -0.000021  -0.000052   0.001329   0.001015   0.000864
   28  O  1 ZZZ   0.000267  -0.001063   0.001465  -0.001469   0.001685
   29  O  1 XXY  -0.000014   0.000252   0.000672  -0.001233  -0.002818
   30  O  1 XXZ  -0.000107   0.000487  -0.001730   0.000174  -0.000526
   31  O  1 YYX  -0.000035  -0.000041   0.000419   0.001400  -0.002048
   32  O  1 YYZ  -0.000251   0.000940  -0.000235   0.001797  -0.001735
   33  O  1 ZZX  -0.000173   0.000631   0.000265   0.001358   0.002357
   34  O  1 ZZY   0.000042  -0.000182  -0.002455  -0.000128   0.001658
   35  O  1 XYZ   0.000174  -0.000824  -0.000918  -0.000100  -0.001916
   36  H  2  S   -0.000097   0.133204  -0.211625  -0.120641  -0.000002
   37  H  2  S   -0.000027   0.058415  -0.173189  -0.123529  -0.000032
   38  H  2  S   -0.000378  -0.000301  -0.018043  -0.012466   0.000000
   39  H  2  X   -0.000301   0.007354  -0.008955  -0.000228   0.005768
   40  H  2  Y    0.000398  -0.010754   0.011193   0.002583   0.005237
   41  H  2  Z   -0.000202   0.008018  -0.004017  -0.007042   0.001734
   42  H  2  X    0.000028   0.009716  -0.012548   0.010264   0.024066
   43  H  2  Y   -0.000087  -0.014887   0.014938  -0.002744   0.021864
   44  H  2  Z    0.000167   0.012641  -0.003373  -0.025853   0.007231
   45  H  2 XX    0.000004  -0.001041   0.000144   0.002092   0.002533
   46  H  2 YY   -0.000145   0.001514  -0.002205   0.000669  -0.003445
   47  H  2 ZZ    0.000142  -0.000472   0.002060  -0.002761   0.000912
   48  H  2 XY    0.000289  -0.003978   0.004689   0.000220  -0.000862
   49  H  2 XZ   -0.000166   0.002708  -0.002500  -0.001524   0.002189
   50  H  2 YZ    0.000201  -0.004126   0.003182   0.003449   0.000931
   51  H  3  S   -0.000097   0.133242   0.211629  -0.120635  -0.000001
   52  H  3  S   -0.000026   0.058429   0.173091  -0.123528  -0.000024
   53  H  3  S   -0.000378  -0.000303   0.018040  -0.012456  -0.000001
   54  H  3  X   -0.000210   0.004401   0.006753   0.001514   0.005769
   55  H  3  Y    0.000069   0.000006  -0.003172  -0.003760   0.005239
   56  H  3  Z    0.000491  -0.014656  -0.012883   0.006319   0.001735
   57  H  3  X   -0.000016   0.005319   0.009999   0.015132   0.024071
   58  H  3  Y    0.000075   0.001140  -0.005692  -0.020484   0.021856
   59  H  3  Z   -0.000174  -0.021131  -0.016069   0.011526   0.007246
   60  H  3 XX    0.000108  -0.002466  -0.001759   0.002316   0.001451
   61  H  3 YY    0.000203  -0.003233  -0.003176   0.001413   0.000137
   62  H  3 ZZ   -0.000311   0.005699   0.004935  -0.003728  -0.001588
   63  H  3 XY    0.000014  -0.000229  -0.000437  -0.000367   0.000847
   64  H  3 XZ    0.000263  -0.003141  -0.004131  -0.000608  -0.002796
   65  H  3 YZ   -0.000099  -0.000045   0.001447   0.002810  -0.002741

                      6          7          8          9         10
                    0.0817     0.1380     0.3640     0.3796     0.4233
                     A          A          A          A          A   
    1  O  1  S   -0.061307   0.000004   0.000075   0.097971   0.013617
    2  O  1  S    0.159123  -0.000016  -0.000041  -0.040220   0.000430
    3  O  1  S   -0.036679   0.000035  -0.000481  -0.811642  -0.141668
    4  O  1  S    0.906443  -0.000169  -0.000592  -2.017638   1.043023
    5  O  1  X   -0.089683  -0.023295   0.022156   0.042338   0.224935
    6  O  1  Y    0.082027   0.084858  -0.080463  -0.038685  -0.205689
    7  O  1  Z    0.050578  -0.178769   0.169297  -0.024003  -0.126992
    8  O  1  X   -0.074250  -0.004988   0.068081   0.246114   0.338667
    9  O  1  Y    0.067907   0.018170  -0.247511  -0.224923  -0.309657
   10  O  1  Z    0.041888  -0.038279   0.521001  -0.139384  -0.191300
   11  O  1  X   -0.120871  -0.069383   0.155926   1.015988  -0.918660
   12  O  1  Y    0.110553   0.252757  -0.566928  -0.928677   0.840242
   13  O  1  Z    0.068165  -0.532495   1.193334  -0.574685   0.518088
   14  O  1 XX    0.001070  -0.000211   0.002755  -0.007172  -0.000604
   15  O  1 YY    0.000506  -0.000704   0.009193  -0.003546  -0.000148
   16  O  1 ZZ   -0.001576   0.000915  -0.011948   0.010718   0.000752
   17  O  1 XY    0.000020   0.000556  -0.007268  -0.010343   0.009696
   18  O  1 XZ   -0.000490  -0.000868   0.011332  -0.001753   0.005053
   19  O  1 YZ    0.001508   0.000606  -0.007915  -0.008195  -0.002666
   20  O  1 XX    0.005102  -0.003388  -0.014099   0.026819  -0.008479
   21  O  1 YY    0.002402  -0.011289  -0.046990   0.013558  -0.004487
   22  O  1 ZZ   -0.007504   0.014677   0.061089  -0.040377   0.012966
   23  O  1 XY   -0.000534   0.008917   0.037134   0.058406  -0.034242
   24  O  1 XZ   -0.002654  -0.013911  -0.057900   0.016309  -0.012871
   25  O  1 YZ    0.007318   0.009710   0.040420   0.026918  -0.005602
   26  O  1 XXX  -0.001195   0.000216  -0.000951  -0.008951  -0.002642
   27  O  1 YYY   0.000062  -0.000558   0.002471   0.002360  -0.000031
   28  O  1 ZZZ  -0.002322   0.000091   0.004439  -0.012115  -0.005599
   29  O  1 XXY   0.000294  -0.001206  -0.001009  -0.001432   0.000969
   30  O  1 XXZ   0.000983   0.000289  -0.004283   0.004193   0.002452
   31  O  1 YYX   0.000148   0.003177   0.008987   0.003497   0.000113
   32  O  1 YYZ   0.002132  -0.000411  -0.001673   0.012060   0.005059
   33  O  1 ZZX   0.001455  -0.003467  -0.007710   0.008512   0.003432
   34  O  1 ZZY  -0.000377   0.001955  -0.002307  -0.001733  -0.000928
   35  O  1 XYZ  -0.001633  -0.002681  -0.009218  -0.006553  -0.004101
   36  H  2  S   -0.046350  -0.020475   0.179027   0.158080   0.056494
   37  H  2  S   -0.072471   0.026905   1.892189   2.347244  -0.185928
   38  H  2  S   -0.787169  -1.829665  -0.606235  -0.557377  -0.426382
   39  H  2  X    0.007323   0.010279   0.004503   0.005680   0.002770
   40  H  2  Y   -0.011180  -0.013451  -0.008447  -0.005295  -0.006244
   41  H  2  Z    0.009404   0.006429   0.010530  -0.002904   0.009642
   42  H  2  X    0.012967   0.026731   0.074706   0.124701  -0.046668
   43  H  2  Y   -0.018417  -0.040570  -0.121307  -0.173816   0.094834
   44  H  2  Z    0.012482   0.033607   0.117850   0.110149  -0.131165
   45  H  2 XX   -0.000872  -0.000840  -0.005001  -0.004937   0.001709
   46  H  2 YY    0.002028   0.002782   0.008402   0.007933   0.003170
   47  H  2 ZZ   -0.001156  -0.001942  -0.003401  -0.002995  -0.004878
   48  H  2 XY   -0.004156  -0.006792  -0.018449  -0.022289  -0.005455
   49  H  2 XZ    0.003425   0.003685   0.015604   0.012785   0.001458
   50  H  2 YZ   -0.004573  -0.005313  -0.021791  -0.020252  -0.000582
   51  H  3  S   -0.046326   0.020455  -0.178784   0.158350   0.056581
   52  H  3  S   -0.072472  -0.026927  -1.889554   2.350628  -0.184883
   53  H  3  S   -0.786911   1.829896   0.605089  -0.557846  -0.426596
   54  H  3  X    0.004036  -0.007313  -0.001323   0.005611   0.000051
   55  H  3  Y    0.000791   0.002636  -0.003119  -0.005024   0.003667
   56  H  3  Z   -0.015813   0.016361   0.013816  -0.003493  -0.011243
   57  H  3  X    0.008151  -0.014911  -0.035806   0.080976  -0.008396
   58  H  3  Y   -0.000902  -0.002487  -0.020232  -0.014155  -0.044446
   59  H  3  Z   -0.024389   0.057102   0.180187  -0.226572   0.162140
   60  H  3 XX   -0.002597   0.003101   0.012606  -0.012270   0.000016
   61  H  3 YY   -0.003721   0.004755   0.016957  -0.016453  -0.002454
   62  H  3 ZZ    0.006318  -0.007856  -0.029563   0.028723   0.002438
   63  H  3 XY    0.000386   0.000840  -0.001601  -0.003050  -0.001020
   64  H  3 XZ   -0.003658   0.005601   0.015645  -0.017258  -0.005468
   65  H  3 YZ    0.000372  -0.001169  -0.000031   0.000697   0.004245

                     11         12         13         14         15
                    0.4344     0.5366     0.6237     0.8008     0.8437
                     A          A          A          A          A   
    1  O  1  S   -0.000001   0.000009   0.143520   0.021609   0.000001
    2  O  1  S    0.000002  -0.000005  -0.036564  -0.043641   0.000001
    3  O  1  S    0.000004  -0.000036  -1.517372  -0.097437  -0.000017
    4  O  1  S   -0.000019  -0.000117   5.180981   2.775465   0.000038
    5  O  1  X   -0.217555  -0.038427   0.011006  -0.054859  -0.000003
    6  O  1  Y   -0.197526   0.140000  -0.010064   0.050169  -0.000001
    7  O  1  Z   -0.065410  -0.294958  -0.006225   0.030956   0.000000
    8  O  1  X   -0.438728  -0.053343  -0.271309  -0.463604   0.000030
    9  O  1  Y   -0.398342   0.194378   0.248083   0.423945   0.000038
   10  O  1  Z   -0.131920  -0.409551   0.153206   0.261720   0.000001
   11  O  1  X    0.881365   0.257362  -0.678341  -0.889301  -0.000063
   12  O  1  Y    0.800228  -0.937262   0.620326   0.813229  -0.000033
   13  O  1  Z    0.265008   1.974312   0.382928   0.502047  -0.000012
   14  O  1 XX    0.005863   0.002118   0.010480  -0.012148  -0.004033
   15  O  1 YY   -0.004867   0.007058   0.005073  -0.005468   0.013339
   16  O  1 ZZ   -0.000995  -0.009176  -0.015553   0.017616  -0.009306
   17  O  1 XY   -0.000022  -0.005576   0.008243   0.019171   0.006369
   18  O  1 XZ   -0.000893   0.008697  -0.000840   0.015118  -0.018570
   19  O  1 YZ   -0.002666  -0.006070   0.013275  -0.020763  -0.013675
   20  O  1 XX   -0.006643  -0.009761  -0.046159   0.013817  -0.002876
   21  O  1 YY    0.005518  -0.032526  -0.022533   0.005821   0.009467
   22  O  1 ZZ    0.001125   0.042287   0.068692  -0.019637  -0.006590
   23  O  1 XY    0.000026   0.025695  -0.049019  -0.048565   0.004508
   24  O  1 XZ    0.001014  -0.040077  -0.002580  -0.030409  -0.013143
   25  O  1 YZ    0.003021   0.027974  -0.056074   0.028654  -0.009672
   26  O  1 XXX   0.000128  -0.000096   0.007886   0.011848  -0.009221
   27  O  1 YYY  -0.000190   0.000245  -0.000751  -0.010841  -0.027889
   28  O  1 ZZZ  -0.000458   0.000238   0.014363  -0.005424   0.012008
   29  O  1 XXY   0.000691   0.000162  -0.001280   0.016656   0.015047
   30  O  1 XXZ   0.000093  -0.000300  -0.005909   0.007334  -0.030558
   31  O  1 YYX   0.000487  -0.000060  -0.001411  -0.014361   0.003323
   32  O  1 YYZ   0.000522  -0.000019  -0.013362  -0.000057   0.014448
   33  O  1 ZZX  -0.000658   0.000189  -0.009168  -0.001534   0.009047
   34  O  1 ZZY  -0.000436  -0.000490   0.002287  -0.002111   0.022370
   35  O  1 XYZ   0.000500  -0.000045   0.009738  -0.014313  -0.000294
   36  H  2  S   -0.000001  -0.039297  -0.036109   0.040297   0.000000
   37  H  2  S   -0.000000   0.454286  -1.708857  -1.703211  -0.000029
   38  H  2  S    0.000007   1.547097  -0.538730  -0.006536   0.000000
   39  H  2  X    0.006019  -0.004254   0.003803  -0.019874  -0.036258
   40  H  2  Y    0.005466   0.002517  -0.002964   0.007920  -0.032919
   41  H  2  Z    0.001810   0.006548  -0.003694   0.042191  -0.010901
   42  H  2  X   -0.026944   0.116569  -0.246834   0.244304   0.574245
   43  H  2  Y   -0.024464  -0.150419   0.297896   0.016026   0.521380
   44  H  2  Z   -0.008098   0.066522  -0.078655  -0.861025   0.172645
   45  H  2 XX    0.000679  -0.000513   0.000451   0.026084   0.021273
   46  H  2 YY   -0.000627   0.001213  -0.006773   0.014301  -0.023230
   47  H  2 ZZ   -0.000052  -0.000700   0.006322  -0.040386   0.001957
   48  H  2 XY   -0.000042  -0.001422   0.016809  -0.001247  -0.003621
   49  H  2 XZ    0.000017   0.002531  -0.006581  -0.008788   0.007452
   50  H  2 YZ   -0.000211  -0.002891   0.009401   0.033846  -0.001028
   51  H  3  S   -0.000002   0.039302  -0.036120   0.040289   0.000000
   52  H  3  S   -0.000003  -0.453848  -1.709141  -1.703719   0.000002
   53  H  3  S    0.000007  -1.547243  -0.538959  -0.006584  -0.000005
   54  H  3  X    0.006022   0.005262   0.004176  -0.027390   0.036245
   55  H  3  Y    0.005467  -0.006186  -0.004332   0.035301   0.032908
   56  H  3  Z    0.001810   0.001177  -0.000805  -0.015501   0.010897
   57  H  3  X   -0.026959  -0.084448  -0.193964   0.419805  -0.574148
   58  H  3  Y   -0.024479   0.033417   0.105174  -0.623407  -0.521309
   59  H  3  Z   -0.008117   0.179951   0.327499   0.486299  -0.172637
   60  H  3 XX    0.000629   0.001530   0.005443   0.024724  -0.016784
   61  H  3 YY   -0.000460   0.002180   0.009856   0.009740   0.008365
   62  H  3 ZZ   -0.000169  -0.003710  -0.015299  -0.034465   0.008419
   63  H  3 XY    0.000038  -0.001262   0.003676   0.002356  -0.003479
   64  H  3 XZ   -0.000218   0.001650   0.013915  -0.014414   0.013251
   65  H  3 YZ   -0.000385  -0.000029  -0.004903   0.037782   0.016277

                     16         17         18         19         20
                    0.9588     1.1326     1.2533     1.2547     1.4993
                     A          A          A          A          A   
    1  O  1  S    0.000002   0.000028   0.087405   0.001663  -0.083530
    2  O  1  S    0.000005   0.000097   0.409079   0.007805   0.080685
    3  O  1  S   -0.000052  -0.001197  -3.055678  -0.057807   1.766210
    4  O  1  S    0.000003  -0.001159  -3.765570  -0.071489   1.108006
    5  O  1  X   -0.079815   0.007608  -0.098765  -0.027328  -0.124378
    6  O  1  Y   -0.072464  -0.027774   0.089015   0.094363   0.113786
    7  O  1  Z   -0.023997   0.058568   0.059705  -0.194059   0.070061
    8  O  1  X   -0.264356  -0.173645   1.076056   0.178415  -0.580719
    9  O  1  Y   -0.240039   0.633415  -0.975895  -0.594175   0.531659
   10  O  1  Z   -0.079494  -1.335202  -0.631937   1.200849   0.325968
   11  O  1  X   -0.418722  -0.191904   0.799546   0.033738  -0.081018
   12  O  1  Y   -0.380168   0.699644  -0.730316  -0.081427   0.074296
   13  O  1  Z   -0.125894  -1.474477  -0.453860   0.133679   0.045106
   14  O  1 XX   -0.015868   0.000809   0.000145   0.000566   0.003742
   15  O  1 YY    0.013174   0.002690   0.000051   0.001889   0.001820
   16  O  1 ZZ    0.002695  -0.003499  -0.000196  -0.002455  -0.005562
   17  O  1 XY    0.000059  -0.002119   0.000688  -0.001483   0.003978
   18  O  1 XZ    0.002420   0.003316   0.000218   0.002334   0.000196
   19  O  1 YZ    0.007216  -0.002313   0.000118  -0.001629   0.004557
   20  O  1 XX   -0.073474   0.085823   0.270943  -0.106523   0.180420
   21  O  1 YY    0.061020   0.285712   0.139441  -0.369460   0.089565
   22  O  1 ZZ    0.012454  -0.371534  -0.410384   0.475983  -0.269985
   23  O  1 XY    0.000289  -0.225546   0.366328   0.300893   0.289572
   24  O  1 XZ    0.011172   0.352020   0.066087  -0.457286   0.058448
   25  O  1 YZ    0.033391  -0.245590   0.304469   0.325849   0.200739
   26  O  1 XXX   0.006244   0.005682  -0.074473   0.000126  -0.020963
   27  O  1 YYY  -0.005142  -0.014850   0.018471  -0.003604   0.004876
   28  O  1 ZZZ  -0.015525  -0.023797  -0.104388   0.009154  -0.030180
   29  O  1 XXY   0.021260   0.002190  -0.009105  -0.022457  -0.002119
   30  O  1 XXZ   0.001650   0.023939   0.037005  -0.003762   0.010910
   31  O  1 YYX   0.014468  -0.039940   0.026200   0.072958   0.007365
   32  O  1 YYZ   0.019179   0.007989   0.103047  -0.008519   0.029581
   33  O  1 ZZX  -0.022845   0.032317   0.073717  -0.073127   0.020760
   34  O  1 ZZY  -0.014361   0.017734  -0.015677   0.027292  -0.004423
   35  O  1 XYZ   0.016353   0.042509  -0.057066  -0.065775  -0.017267
   36  H  2  S   -0.000000   0.249983  -0.460029  -0.339442  -0.312177
   37  H  2  S    0.000021  -2.916345   4.151400   2.558171  -0.886382
   38  H  2  S   -0.000004   0.298474  -0.424315  -0.745404  -0.136196
   39  H  2  X   -0.045078  -0.009404   0.025661   0.068926   0.054578
   40  H  2  Y   -0.040928   0.031945  -0.042432  -0.077311  -0.078139
   41  H  2  Z   -0.013553  -0.065190   0.042788   0.004216   0.054436
   42  H  2  X    0.651013  -0.836338   0.856800   0.180794  -0.618709
   43  H  2  Y    0.591053   0.857183  -1.179509  -0.577027   0.903169
   44  H  2  Z    0.195741   0.193101   0.712138   1.141175  -0.669558
   45  H  2 XX    0.007400   0.012205  -0.018265  -0.020971   0.013802
   46  H  2 YY   -0.017038  -0.028393   0.040256   0.033890   0.015552
   47  H  2 ZZ    0.009639   0.016188  -0.021991  -0.012919  -0.029354
   48  H  2 XY   -0.006957   0.070302  -0.101989  -0.067440   0.002696
   49  H  2 XZ    0.019795  -0.042352   0.060347   0.067308   0.013081
   50  H  2 YZ    0.013547   0.062044  -0.089696  -0.090788   0.004207
   51  H  3  S   -0.000001  -0.250034  -0.472258   0.321498  -0.311894
   52  H  3  S    0.000028   2.918850   4.245015  -2.398683  -0.882085
   53  H  3  S   -0.000008  -0.298661  -0.452148   0.728691  -0.136250
   54  H  3  X   -0.045081  -0.007705   0.013984  -0.057962   0.033872
   55  H  3  Y   -0.040930   0.030402   0.006695   0.039458  -0.002766
   56  H  3  Z   -0.013555  -0.066180  -0.066725   0.073623  -0.104303
   57  H  3  X    0.651155   0.769070   0.561262   0.142415  -0.370302
   58  H  3  Y    0.591193  -0.610695  -0.101871  -0.526643   0.002155
   59  H  3  Z    0.195761  -0.713738  -1.559122   1.116658   1.225091
   60  H  3 XX   -0.001386  -0.036514  -0.054951   0.049833   0.007558
   61  H  3 YY    0.012050  -0.052557  -0.078131   0.066173  -0.005191
   62  H  3 ZZ   -0.010664   0.089071   0.133083  -0.116006  -0.002367
   63  H  3 XY    0.006937  -0.006397  -0.009958  -0.014309   0.019044
   64  H  3 XZ   -0.020722  -0.057401  -0.084585   0.056408  -0.012466
   65  H  3 YZ   -0.016291   0.007561   0.009845   0.002601   0.022010

                     21         22         23         24         25
                    1.5558     1.8445     1.9199     1.9500     2.1515
                     A          A          A          A          A   
    1  O  1  S    0.000056  -0.000000   0.000001  -0.008163  -0.018839
    2  O  1  S   -0.000105  -0.000003  -0.000008   0.110386   0.262318
    3  O  1  S   -0.001666   0.000011   0.000004   0.055852  -0.009103
    4  O  1  S   -0.000547   0.000007  -0.000114   2.319525   1.109226
    5  O  1  X   -0.022461  -0.125598   0.000076  -0.357692  -0.337558
    6  O  1  Y    0.082083  -0.114039   0.000034   0.327111   0.308706
    7  O  1  Z   -0.173161  -0.037768   0.000008   0.201865   0.190469
    8  O  1  X   -0.252645  -0.043250   0.000044   0.040993   0.338342
    9  O  1  Y    0.921509  -0.039254   0.000046  -0.037502  -0.309441
   10  O  1  Z   -1.942425  -0.013003   0.000010  -0.023100  -0.190860
   11  O  1  X   -0.071486  -0.349172   0.000159  -0.807414  -0.102729
   12  O  1  Y    0.260341  -0.317021   0.000070   0.738387   0.093960
   13  O  1  Z   -0.548404  -0.104992   0.000011   0.455656   0.057921
   14  O  1 XX   -0.003148  -0.013571  -0.002506   0.003700   0.008672
   15  O  1 YY   -0.010487   0.011269   0.008298   0.001907   0.004183
   16  O  1 ZZ    0.013635   0.002302  -0.005792  -0.005607  -0.012855
   17  O  1 XY    0.008282   0.000052   0.003963   0.010689   0.005644
   18  O  1 XZ   -0.012922   0.002064  -0.011559   0.003538  -0.001269
   19  O  1 YZ    0.009018   0.006167  -0.008513   0.003227   0.011200
   20  O  1 XX    0.014537   0.972916   0.185729   0.064344  -0.568969
   21  O  1 YY    0.049004  -0.807925  -0.615048   0.017612  -0.266211
   22  O  1 ZZ   -0.063541  -0.164991   0.429319  -0.081956   0.835180
   23  O  1 XY   -0.039099  -0.003751  -0.293688  -0.890170   0.191119
   24  O  1 XZ    0.060429  -0.147921   0.856648  -0.468320   0.360198
   25  O  1 YZ   -0.042436  -0.442110   0.630877   0.257565  -0.840323
   26  O  1 XXX   0.004245  -0.013950  -0.006125  -0.022600  -0.023247
   27  O  1 YYY  -0.010980  -0.008249  -0.018534  -0.000378   0.008783
   28  O  1 ZZZ  -0.014747   0.002100   0.007989  -0.048207  -0.024102
   29  O  1 XXY  -0.001998   0.012061   0.009992   0.008517  -0.008763
   30  O  1 XXZ   0.015943   0.009969  -0.020319   0.021162   0.006464
   31  O  1 YYX  -0.016358   0.012030   0.002202   0.000848   0.012414
   32  O  1 YYZ   0.003842  -0.012787   0.009600   0.043514   0.025872
   33  O  1 ZZX   0.010662   0.006686   0.006016   0.029474   0.018776
   34  O  1 ZZY   0.016730  -0.000993   0.014875  -0.008010  -0.003020
   35  O  1 XYZ   0.019397   0.001932  -0.000198  -0.035462  -0.009166
   36  H  2  S   -0.224404   0.000010   0.000020  -0.211802  -0.324711
   37  H  2  S   -2.448443  -0.000032   0.000041  -1.183946  -0.332386
   38  H  2  S    0.035837   0.000003   0.000011  -0.140848  -0.155219
   39  H  2  X    0.030613  -0.023947  -0.032653   0.024840   0.067531
   40  H  2  Y   -0.044890  -0.021743  -0.029643  -0.048893  -0.063729
   41  H  2  Z    0.033741  -0.007200  -0.009821   0.065015  -0.032158
   42  H  2  X   -1.047295   0.457524   0.471198  -0.030932  -0.517864
   43  H  2  Y    1.490192   0.415419   0.427815   0.247527   0.459359
   44  H  2  Z   -1.016775   0.137557   0.141709  -0.644397   0.335246
   45  H  2 XX    0.000437   0.035703   0.004581  -0.003409  -0.032822
   46  H  2 YY   -0.027345  -0.026159  -0.021283   0.012183  -0.009565
   47  H  2 ZZ    0.026908  -0.009544   0.016702  -0.008773   0.042387
   48  H  2 XY    0.035784   0.002081  -0.011128  -0.048986  -0.029297
   49  H  2 XZ   -0.039449  -0.012127   0.032864   0.006848   0.013830
   50  H  2 YZ    0.040158  -0.021639   0.025049  -0.019535  -0.051424
   51  H  3  S    0.225034   0.000003   0.000017  -0.211768  -0.324643
   52  H  3  S    2.449584   0.000004   0.000057  -1.184156  -0.332386
   53  H  3  S   -0.035641   0.000002   0.000008  -0.140811  -0.155163
   54  H  3  X   -0.018289  -0.023926   0.032655   0.005668   0.066085
   55  H  3  Y   -0.000220  -0.021724   0.029648   0.020999  -0.058454
   56  H  3  Z    0.061494  -0.007193   0.009823  -0.082252  -0.043281
   57  H  3  X    0.657562   0.457339  -0.471536   0.129707  -0.528394
   58  H  3  Y   -0.068386   0.415231  -0.428098  -0.337886   0.497490
   59  H  3  Z   -1.980501   0.137502  -0.141805   0.588777   0.255122
   60  H  3 XX   -0.019822   0.038528   0.009492  -0.013419  -0.037249
   61  H  3 YY   -0.037198  -0.035476  -0.025367  -0.021173  -0.024237
   62  H  3 ZZ    0.057020  -0.003052   0.015875   0.034592   0.061487
   63  H  3 XY    0.015181  -0.002362  -0.011154  -0.022650  -0.017699
   64  H  3 XZ   -0.040077   0.000828   0.032136  -0.034257  -0.004212
   65  H  3 YZ    0.015332  -0.012103   0.022829   0.009154  -0.038856

                     26         27         28         29         30
                    2.1855     2.3878     2.7720     3.4661     3.4768
                     A          A          A          A          A   
    1  O  1  S   -0.000003  -0.000000  -0.046634   0.000000  -0.000000
    2  O  1  S   -0.000030   0.000003   1.028306   0.000011   0.000252
    3  O  1  S    0.000113  -0.000001  -0.421419  -0.000021  -0.000002
    4  O  1  S   -0.000017   0.000008   3.727528   0.000011   0.000291
    5  O  1  X   -0.096635  -0.832416   0.560418   0.017355  -0.073886
    6  O  1  Y    0.352204  -0.755788  -0.512523   0.015757   0.269072
    7  O  1  Z   -0.742165  -0.250283  -0.316204   0.005216  -0.566785
    8  O  1  X    0.125114   1.206040  -1.525672  -0.031463   0.343557
    9  O  1  Y   -0.456059   1.095024   1.395260  -0.028570  -1.251590
   10  O  1  Z    0.961065   0.362621   0.860924  -0.009455   2.636812
   11  O  1  X   -0.120379  -0.332388  -0.338453  -0.077262   0.031957
   12  O  1  Y    0.438541  -0.301788   0.309496  -0.070148  -0.116503
   13  O  1  Z   -0.923903  -0.099938   0.191080  -0.023229   0.245526
   14  O  1 XX   -0.001989   0.004637   0.000935   0.026669  -0.004715
   15  O  1 YY   -0.006618  -0.003849   0.000340  -0.022142  -0.015724
   16  O  1 ZZ    0.008608  -0.000788  -0.001275  -0.004527   0.020439
   17  O  1 XY    0.005220  -0.000017  -0.007500  -0.000101   0.012431
   18  O  1 XZ   -0.008155  -0.000708  -0.004124  -0.004063  -0.019378
   19  O  1 YZ    0.005687  -0.002110   0.002722  -0.012125   0.013534
   20  O  1 XX    0.096376  -0.228871  -0.247042   0.202982  -0.138049
   21  O  1 YY    0.321063   0.189999  -0.124642  -0.168535  -0.459842
   22  O  1 ZZ   -0.417439   0.038872   0.371683  -0.034447   0.597891
   23  O  1 XY   -0.253602   0.000842  -0.545845  -0.000766   0.363182
   24  O  1 XZ    0.395614   0.034911  -0.153306  -0.030914  -0.566617
   25  O  1 YZ   -0.276110   0.104096  -0.247121  -0.092280   0.395438
   26  O  1 XXX  -0.005243   0.003861  -0.038843   0.326167   0.038139
   27  O  1 YYY   0.013709   0.002363   0.008373   0.136187  -0.099481
   28  O  1 ZZZ   0.023343  -0.000429  -0.057774  -0.142654  -0.155649
   29  O  1 XXY  -0.003824  -0.003605  -0.002623  -0.110977   0.009948
   30  O  1 XXZ  -0.022950  -0.002836   0.021320  -0.193905   0.158044
   31  O  1 YYX   0.043414  -0.003533   0.012832  -0.153926  -0.250346
   32  O  1 YYZ  -0.008367   0.003412   0.056193   0.385296   0.050781
   33  O  1 ZZX  -0.036380  -0.001648   0.039281  -0.283673   0.199177
   34  O  1 ZZY  -0.014568   0.000434  -0.008610  -0.071737   0.123519
   35  O  1 XYZ  -0.045228  -0.000709  -0.034068   0.065295   0.269080
   36  H  2  S   -0.301247  -0.000006  -0.657372   0.000002   0.836566
   37  H  2  S   -0.065501  -0.000001  -1.781738   0.000005   1.906773
   38  H  2  S   -0.652979  -0.000000  -0.156379  -0.000002  -0.259930
   39  H  2  X    0.044923   0.025998  -0.013994  -0.102813  -0.067783
   40  H  2  Y   -0.072051   0.023606   0.005585  -0.093346   0.072856
   41  H  2  Z    0.068164   0.007817   0.029681  -0.030912   0.005435
   42  H  2  X   -0.018047  -0.237049  -0.375528   0.138902   0.776645
   43  H  2  Y    0.099471  -0.215225   0.632415   0.126108  -1.074034
   44  H  2  Z   -0.240352  -0.071276  -0.660736   0.041764   0.660236
   45  H  2 XX   -0.002727  -0.029477  -0.001840  -0.298475  -0.064393
   46  H  2 YY    0.036742   0.031410  -0.020399   0.160053  -0.050385
   47  H  2 ZZ   -0.034015  -0.001933   0.022239   0.138422   0.114778
   48  H  2 XY   -0.057808   0.004523   0.005439  -0.054684  -0.224025
   49  H  2 XZ    0.051542  -0.008831  -0.036193   0.213987  -0.114089
   50  H  2 YZ   -0.057053   0.002635   0.028686   0.271930  -0.021574
   51  H  3  S    0.301226  -0.000004  -0.657455  -0.000001  -0.836776
   52  H  3  S    0.065359  -0.000001  -1.781798  -0.000004  -1.907106
   53  H  3  S    0.653040  -0.000001  -0.156507  -0.000001   0.259915
   54  H  3  X   -0.022256   0.025987  -0.019276  -0.102811   0.059803
   55  H  3  Y   -0.010632   0.023595   0.024839  -0.093346  -0.043838
   56  H  3  Z    0.106128   0.007813  -0.010897  -0.030912  -0.066523
   57  H  3  X   -0.042756  -0.237134  -0.163614   0.138916  -0.509997
   58  H  3  Y    0.122047  -0.215305  -0.139353   0.126128   0.102595
   59  H  3  Z   -0.226355  -0.071297   0.964983   0.041769   1.386407
   60  H  3 XX    0.029568  -0.023900   0.011698  -0.369303   0.052839
   61  H  3 YY    0.052675   0.012889   0.024689   0.394415   0.011939
   62  H  3 ZZ   -0.082244   0.011010  -0.036387  -0.025112  -0.064778
   63  H  3 XY   -0.012789  -0.004333  -0.030208   0.057218   0.254362
   64  H  3 XZ    0.058651   0.016995   0.019354  -0.112328   0.066730
   65  H  3 YZ   -0.019849   0.021661  -0.010084   0.031628   0.054598

                     31         32         33         34         35
                    3.5942     3.6497     3.8012     3.8799     3.9176
                     A          A          A          A          A   
    1  O  1  S   -0.027543  -0.000000   0.000005   0.000002   0.000021
    2  O  1  S   -0.464599  -0.000008   0.000108   0.000034   0.000463
    3  O  1  S    0.990225   0.000018  -0.000127  -0.000079  -0.000844
    4  O  1  S    0.106089  -0.000016  -0.000082   0.000005  -0.000088
    5  O  1  X    0.015388   0.000015  -0.021949  -0.002886  -0.037815
    6  O  1  Y   -0.014079   0.000015   0.079865  -0.002613   0.137639
    7  O  1  Z   -0.008668   0.000005  -0.168169  -0.000872  -0.289861
    8  O  1  X   -0.123870  -0.000062   0.093595  -0.005359   0.168312
    9  O  1  Y    0.113267  -0.000056  -0.340620  -0.004909  -0.612672
   10  O  1  Z    0.069947  -0.000015   0.717291  -0.001598   1.290307
   11  O  1  X   -0.122956   0.000008   0.059402  -0.183678  -0.012471
   12  O  1  Y    0.112425   0.000001  -0.216265  -0.166771   0.045554
   13  O  1  Z    0.069450  -0.000002   0.455503  -0.055228  -0.096056
   14  O  1 XX    0.026307  -0.013441  -0.003765   0.067567  -0.027597
   15  O  1 YY    0.012368   0.044463  -0.012537  -0.056100  -0.091979
   16  O  1 ZZ   -0.038675  -0.031022   0.016302  -0.011467   0.119575
   17  O  1 XY   -0.004990   0.021229   0.009909  -0.000251   0.072669
   18  O  1 XZ   -0.014755  -0.061905  -0.015444  -0.010297  -0.113352
   19  O  1 YZ    0.038129  -0.045587   0.010779  -0.030720   0.079135
   20  O  1 XX   -0.008347  -0.004845  -0.055923  -0.041073  -0.053108
   21  O  1 YY   -0.001531   0.016085  -0.186187   0.034123  -0.177005
   22  O  1 ZZ    0.009878  -0.011240   0.242110   0.006950   0.230113
   23  O  1 XY    0.169157   0.007687   0.147096   0.000178   0.139861
   24  O  1 XZ    0.087170  -0.022429  -0.229358   0.006207  -0.218117
   25  O  1 YZ   -0.043439  -0.016523   0.160041   0.018643   0.152265
   26  O  1 XXX   0.215629   0.117886  -0.085553  -0.148082   0.008864
   27  O  1 YYY  -0.209233   0.356558   0.222348  -0.213476  -0.022940
   28  O  1 ZZZ  -0.131914  -0.153509   0.203276  -0.185317   0.002512
   29  O  1 XXY   0.326134  -0.192411   0.166795   0.507692  -0.047977
   30  O  1 XXZ   0.153365   0.390663  -0.263550   0.192715   0.012624
   31  O  1 YYX  -0.276561  -0.042524  -0.127437   0.410397   0.124871
   32  O  1 YYZ   0.023616  -0.184709  -0.009174   0.055913  -0.015995
   33  O  1 ZZX  -0.012736  -0.115637   0.242219  -0.211725  -0.136763
   34  O  1 ZZY  -0.045419  -0.285962  -0.465106  -0.221284   0.078754
   35  O  1 XYZ  -0.296107   0.003737   0.027003   0.265690  -0.104990
   36  H  2  S    0.050278  -0.000002   0.309212   0.000019   0.554857
   37  H  2  S   -0.486852   0.000008   0.624882   0.000035   0.674026
   38  H  2  S    0.093460   0.000000   0.082446  -0.000004  -0.039327
   39  H  2  X   -0.091178   0.338116  -0.246222  -0.370653  -0.034439
   40  H  2  Y    0.080466   0.306984   0.171237  -0.336522   0.207666
   41  H  2  Z    0.060299   0.101658   0.301843  -0.111457  -0.512501
   42  H  2  X   -0.036895  -0.278193   0.452461   0.327192   0.356615
   43  H  2  Y    0.096677  -0.252580  -0.426925   0.297031  -0.627072
   44  H  2  Z   -0.169257  -0.083640  -0.215666   0.098396   0.707470
   45  H  2 XX   -0.157826  -0.129899  -0.004804   0.012122   0.099771
   46  H  2 YY   -0.173589   0.019757   0.048781   0.025163   0.174596
   47  H  2 ZZ    0.331415   0.110143  -0.043977  -0.037285  -0.274367
   48  H  2 XY   -0.245159  -0.055529   0.182373   0.022354   0.090265
   49  H  2 XZ   -0.240333   0.188963   0.190184  -0.069477   0.253358
   50  H  2 YZ   -0.020010   0.195815  -0.120718  -0.060193  -0.083616
   51  H  3  S    0.050215  -0.000006  -0.309233  -0.000007  -0.554720
   52  H  3  S   -0.487024   0.000005  -0.624689   0.000008  -0.673520
   53  H  3  S    0.093448   0.000001  -0.082465  -0.000005   0.039283
   54  H  3  X   -0.093300  -0.338103   0.285823  -0.370701  -0.094784
   55  H  3  Y    0.088235  -0.306977  -0.315351  -0.336572   0.262806
   56  H  3  Z    0.043835  -0.101658   0.001650  -0.111464  -0.478306
   57  H  3  X    0.009200   0.278230  -0.442931   0.327271  -0.135843
   58  H  3  Y   -0.071368   0.252616   0.391989   0.297142  -0.176586
   59  H  3  Z    0.184934   0.083658   0.289449   0.098404   0.985005
   60  H  3 XX   -0.091889   0.201066   0.038201   0.040644  -0.012662
   61  H  3 YY    0.045990  -0.255005   0.062620  -0.068941   0.115539
   62  H  3 ZZ    0.045899   0.053940  -0.100821   0.028296  -0.102878
   63  H  3 XY   -0.418620  -0.056752  -0.270249  -0.022545  -0.319416
   64  H  3 XZ    0.030204   0.138485  -0.052795   0.061393   0.104124
   65  H  3 YZ   -0.208811   0.045294   0.024795   0.036146  -0.165861

                     36         37         38         39         40
                    3.9504     4.1300     4.1580     4.3735     4.4683
                     A          A          A          A          A   
    1  O  1  S   -0.103400  -0.000000  -0.072550  -0.017733  -0.000009
    2  O  1  S   -2.112659  -0.000005  -1.007289  -0.736657  -0.000536
    3  O  1  S    4.678113   0.000015   2.584308   2.617992   0.001845
    4  O  1  S   -0.063463   0.000000  -0.241563   1.000934   0.000772
    5  O  1  X    0.123410   0.000001   0.068327   0.106919  -0.005701
    6  O  1  Y   -0.112862  -0.000000  -0.062502  -0.097774   0.021031
    7  O  1  Z   -0.069642   0.000002  -0.038513  -0.060352  -0.044545
    8  O  1  X   -0.855070  -0.000043  -0.352619  -0.716322  -0.043311
    9  O  1  Y    0.781791  -0.000031   0.322385   0.654887   0.156400
   10  O  1  Z    0.483107  -0.000011   0.199274   0.404874  -0.328222
   11  O  1  X   -0.186188  -0.000008   0.098951  -0.176393   0.019686
   12  O  1  Y    0.170235  -0.000006  -0.090491   0.161341  -0.072105
   13  O  1  Z    0.105165  -0.000002  -0.055846   0.099465   0.152268
   14  O  1 XX   -0.016038  -0.000485   0.008289  -0.106422  -0.029652
   15  O  1 YY   -0.008004   0.001592   0.004331  -0.052367  -0.098552
   16  O  1 ZZ    0.024042  -0.001108  -0.012620   0.158789   0.128204
   17  O  1 XY   -0.029155   0.000757   0.028782  -0.144597   0.077710
   18  O  1 XZ   -0.006869  -0.002210   0.010293  -0.021406  -0.121398
   19  O  1 YZ   -0.017210  -0.001627   0.006337  -0.123443   0.084623
   20  O  1 XX   -0.105714   0.022207  -0.154804   0.012508   0.094611
   21  O  1 YY   -0.053789  -0.073346  -0.072659   0.004364   0.315100
   22  O  1 ZZ    0.159503   0.051140   0.227463  -0.016872  -0.409711
   23  O  1 XY   -0.260002  -0.035000   0.038931  -0.095553  -0.248928
   24  O  1 XZ   -0.078769   0.102050   0.091481  -0.053273   0.388208
   25  O  1 YZ   -0.100676   0.075134  -0.226116   0.035876  -0.270917
   26  O  1 XXX  -0.336607   0.071246  -0.259508   0.285250  -0.046018
   27  O  1 YYY   0.107303   0.215421   0.190800  -0.157560   0.120241
   28  O  1 ZZZ  -0.403989  -0.092760  -0.010943   0.157139   0.177500
   29  O  1 XXY  -0.089260  -0.116236  -0.275664   0.203000   0.002208
   30  O  1 XXZ   0.126700   0.236017  -0.082713   0.003859  -0.184430
   31  O  1 YYX   0.155037  -0.025694   0.255860  -0.215500   0.251285
   32  O  1 YYZ   0.415308  -0.111567   0.097395  -0.214683  -0.053712
   33  O  1 ZZX   0.296569  -0.069892   0.092307  -0.167203  -0.189545
   34  O  1 ZZY  -0.054702  -0.172781   0.019678   0.008388  -0.163528
   35  O  1 XYZ  -0.191556   0.002267   0.174400  -0.035793  -0.278438
   36  H  2  S   -0.258271  -0.000002  -0.220474  -0.416723  -0.253737
   37  H  2  S   -1.465147  -0.000005  -0.662894  -1.157985  -0.205661
   38  H  2  S    0.280495   0.000000   0.152260   0.003136   0.198812
   39  H  2  X   -0.066165   0.243831   0.292711   0.396632  -0.436358
   40  H  2  Y   -0.028522   0.221380  -0.135300  -0.509090   0.442808
   41  H  2  Z    0.306142   0.073317  -0.564959   0.218146   0.114134
   42  H  2  X   -0.393904  -0.178039  -0.527541  -0.619982   0.229609
   43  H  2  Y    0.662820  -0.161641   0.527482   0.886297  -0.149222
   44  H  2  Z   -0.691408  -0.053535   0.161698  -0.614381  -0.313062
   45  H  2 XX    0.095239   0.338710  -0.174107   0.050597   0.019478
   46  H  2 YY    0.068301  -0.118437  -0.189573  -0.060357  -0.052965
   47  H  2 ZZ   -0.163540  -0.220273   0.363680   0.009760   0.033487
   48  H  2 XY    0.048926   0.102238   0.047467   0.177414  -0.312467
   49  H  2 XZ    0.025282  -0.364175  -0.113933  -0.112232  -0.279857
   50  H  2 YZ    0.088336  -0.406677  -0.077232   0.181394   0.181062
   51  H  3  S   -0.258681  -0.000004  -0.220717  -0.417270   0.253309
   52  H  3  S   -1.466210  -0.000002  -0.663320  -1.158953   0.203854
   53  H  3  S    0.280657   0.000000   0.152338   0.003488  -0.198787
   54  H  3  X   -0.131397  -0.243837   0.389640   0.288841   0.404621
   55  H  3  Y    0.209184  -0.221385  -0.488663  -0.117764  -0.326029
   56  H  3  Z   -0.194684  -0.073313   0.179718  -0.605025  -0.361207
   57  H  3  X   -0.172308   0.178092  -0.494571  -0.385718  -0.274666
   58  H  3  Y   -0.145201   0.161694   0.407125   0.033172   0.311454
   59  H  3  Z    1.011570   0.053549   0.415498   1.182677  -0.027001
   60  H  3 XX    0.079751  -0.470076  -0.099564   0.110655  -0.059135
   61  H  3 YY    0.016523   0.553120   0.058792   0.139600  -0.079498
   62  H  3 ZZ   -0.096273  -0.083045   0.040772  -0.250255   0.138633
   63  H  3 XY    0.089853   0.105312  -0.148610   0.019000   0.417206
   64  H  3 XZ   -0.038571  -0.241058   0.192160   0.133922   0.116527
   65  H  3 YZ    0.132971  -0.039024  -0.290855   0.009560  -0.066919

                     41         42         43         44         45
                    4.5519     4.5863     4.7308     4.9104     4.9449
                     A          A          A          A          A   
    1  O  1  S    0.000000  -0.000000  -0.028997   0.000055   0.000009
    2  O  1  S   -0.000011   0.000002  -0.112277   0.000438  -0.000014
    3  O  1  S    0.000021  -0.000003   0.389654  -0.000957   0.000032
    4  O  1  S    0.000008   0.000000  -0.383377  -0.000323   0.000049
    5  O  1  X   -0.035061  -0.000085  -0.038273   0.049132  -0.012141
    6  O  1  Y   -0.031838  -0.000076   0.035000  -0.179065   0.044209
    7  O  1  Z   -0.010543  -0.000025   0.021602   0.377318  -0.093120
    8  O  1  X   -0.354305  -0.000593   0.273292   0.299787   0.005504
    9  O  1  Y   -0.321679  -0.000537  -0.249774  -1.091304  -0.020148
   10  O  1  Z   -0.106525  -0.000179  -0.154686   2.298356   0.042544
   11  O  1  X   -0.129131  -0.000187   0.116437   0.066313  -0.014862
   12  O  1  Y   -0.117241  -0.000170  -0.106453  -0.241321   0.054098
   13  O  1  Z   -0.038824  -0.000056  -0.065799   0.508177  -0.113933
   14  O  1 XX   -0.041733   0.015256   0.069548   0.030237   0.000209
   15  O  1 YY    0.034702  -0.050654   0.032296   0.100772   0.000764
   16  O  1 ZZ    0.007031   0.035398  -0.101844  -0.131009  -0.000973
   17  O  1 XY    0.000189  -0.024213  -0.039608  -0.079625  -0.000621
   18  O  1 XZ    0.006253   0.070621  -0.052049   0.124175   0.000962
   19  O  1 YZ    0.018890   0.052030   0.105774  -0.086681  -0.000698
   20  O  1 XX    0.284981  -0.092734  -0.379380  -0.176148  -0.033625
   21  O  1 YY   -0.236944   0.307879  -0.178136  -0.586971  -0.112144
   22  O  1 ZZ   -0.048037  -0.215145   0.557517   0.763119   0.145770
   23  O  1 XY   -0.001284   0.147165   0.076988   0.463694   0.088576
   24  O  1 XZ   -0.042768  -0.429221   0.215504  -0.723301  -0.138251
   25  O  1 YZ   -0.129052  -0.316225  -0.551007   0.504876   0.096540
   26  O  1 XXX   0.108403  -0.042315   0.221844  -0.029992  -0.035638
   27  O  1 YYY   0.110649  -0.128332  -0.207492   0.078407   0.092953
   28  O  1 ZZZ   0.060076   0.055424  -0.114074   0.127188   0.148073
   29  O  1 XXY  -0.233626   0.068973   0.320623  -0.013524  -0.012784
   30  O  1 XXZ  -0.109201  -0.140981   0.144793  -0.127376  -0.149320
   31  O  1 YYX  -0.197582   0.015013  -0.274696   0.218372   0.246626
   32  O  1 YYZ   0.028600   0.066622   0.008253  -0.043264  -0.049341
   33  O  1 ZZX   0.052143   0.041759  -0.022940  -0.178134  -0.198814
   34  O  1 ZZY   0.085175   0.103203  -0.042243  -0.091670  -0.111925
   35  O  1 XYZ  -0.105318  -0.001512  -0.281437  -0.231500  -0.263078
   36  H  2  S   -0.000000  -0.000001  -0.116365   0.968747   0.150049
   37  H  2  S   -0.000010   0.000000   0.124199   2.256545   0.190593
   38  H  2  S    0.000001   0.000000   0.033034  -0.250970  -0.030301
   39  H  2  X   -0.462265   0.376506  -0.007639   0.094804   0.200121
   40  H  2  Y   -0.419717   0.341846   0.085617  -0.144151  -0.073741
   41  H  2  Z   -0.138988   0.113204  -0.233118   0.120000  -0.442911
   42  H  2  X    0.469418  -0.439309  -0.196066   0.841762  -0.172230
   43  H  2  Y    0.426214  -0.398867   0.077919  -1.194540  -0.036635
   44  H  2  Z    0.141137  -0.132088   0.416783   0.807559   0.683448
   45  H  2 XX    0.388221  -0.494182  -0.092668  -0.121630  -0.343685
   46  H  2 YY   -0.463141   0.566418  -0.019854   0.223032  -0.303125
   47  H  2 ZZ    0.074921  -0.072236   0.112523  -0.101403   0.646810
   48  H  2 XY   -0.091004   0.101130   0.565987  -0.663462   0.073432
   49  H  2 XZ    0.211255  -0.224496   0.354090   0.317844  -0.090245
   50  H  2 YZ    0.042067  -0.017642  -0.263030  -0.525640  -0.266274
   51  H  3  S    0.000000   0.000000  -0.115995  -0.968810  -0.150018
   52  H  3  S   -0.000011   0.000002   0.125013  -2.255467  -0.190662
   53  H  3  S   -0.000000  -0.000000   0.032923   0.250854   0.030288
   54  H  3  X   -0.461026  -0.377805   0.050025  -0.052703  -0.280151
   55  H  3  Y   -0.418590  -0.343022  -0.124333  -0.009310   0.365510
   56  H  3  Z   -0.138625  -0.113593   0.209079   0.203416  -0.171975
   57  H  3  X    0.468106   0.440741  -0.270257  -0.530171   0.314576
   58  H  3  Y    0.425019   0.400164   0.348682   0.060319  -0.481863
   59  H  3  Z    0.140756   0.132515  -0.154074   1.581164   0.408837
   60  H  3 XX    0.273491   0.369037  -0.103700   0.321815   0.245880
   61  H  3 YY   -0.086730  -0.149865  -0.056420   0.444044  -0.022818
   62  H  3 ZZ   -0.186762  -0.219172   0.160120  -0.765859  -0.223061
   63  H  3 XY    0.088218   0.098149   0.594884   0.136608   0.183989
   64  H  3 XZ   -0.311150  -0.356797   0.309142   0.504252  -0.311426
   65  H  3 YZ   -0.342195  -0.410765  -0.231726  -0.048194   0.546634

                     46         47         48         49         50
                    5.0488     5.0970     6.0366     6.1087     6.1222
                     A          A          A          A          A   
    1  O  1  S   -0.000005  -0.150882  -0.000000   0.000027  -0.070183
    2  O  1  S   -0.000005  -0.031615  -0.000006   0.000142  -0.640874
    3  O  1  S    0.000120   3.530122  -0.000011  -0.000648   1.025837
    4  O  1  S    0.000055   1.813124  -0.000027  -0.000322  -0.495357
    5  O  1  X    0.001653  -0.261375  -0.098939  -0.038497   0.135487
    6  O  1  Y    0.001515   0.238972  -0.089840   0.140254  -0.123875
    7  O  1  Z    0.000504   0.147680  -0.029740  -0.295508  -0.076544
    8  O  1  X    0.078319  -1.208607   0.966291   0.221400  -0.929274
    9  O  1  Y    0.071187   1.105192   0.877352  -0.805302   0.849892
   10  O  1  Z    0.023574   0.682347   0.290497   1.695594   0.524203
   11  O  1  X    0.001782  -0.367744   0.003300  -0.017279   0.082563
   12  O  1  Y    0.001638   0.336281   0.002981   0.063222  -0.075496
   13  O  1  Z    0.000545   0.207602   0.000995  -0.133446  -0.046629
   14  O  1 XX   -0.077674   0.107113   0.200571  -0.004631  -0.098230
   15  O  1 YY    0.064500   0.053238  -0.166375  -0.015805  -0.049086
   16  O  1 ZZ    0.013173  -0.160351  -0.034196   0.020436   0.147316
   17  O  1 XY    0.000301   0.179705  -0.000662   0.012280  -0.186073
   18  O  1 XZ    0.011822   0.038453  -0.030848  -0.019706  -0.045681
   19  O  1 YZ    0.035313   0.117781  -0.091430   0.013864  -0.104048
   20  O  1 XX   -0.201961  -0.319024  -0.954628  -0.078242   0.493257
   21  O  1 YY    0.167696  -0.159521   0.792575  -0.260080   0.223618
   22  O  1 ZZ    0.034265   0.478545   0.162054   0.338322  -0.716875
   23  O  1 XY    0.000754  -0.600006   0.003561   0.205769  -0.671098
   24  O  1 XZ    0.030718  -0.146468   0.145503  -0.320156  -0.560959
   25  O  1 YZ    0.091767  -0.338655   0.434090   0.223330   0.822896
   26  O  1 XXX   0.588967   0.174484  -0.066890  -0.203915   0.337209
   27  O  1 YYY   0.256462  -0.056004   0.207747   0.530201  -0.292412
   28  O  1 ZZZ  -0.240198   0.208372   0.417729   0.554089  -0.109600
   29  O  1 XXY  -0.232198   0.047105  -0.687726   0.306902   0.443531
   30  O  1 XXZ  -0.357415  -0.065053  -0.122666  -0.671477   0.181782
   31  O  1 YYX  -0.301628  -0.080855  -0.497421   0.026132  -0.388713
   32  O  1 YYZ   0.679674  -0.214507  -0.437776  -0.071911  -0.034739
   33  O  1 ZZX  -0.488554  -0.153240   0.587163   0.247449  -0.063701
   34  O  1 ZZY  -0.111881   0.028032   0.409005  -1.018241  -0.051220
   35  O  1 XYZ   0.097372   0.098003  -0.472196  -0.237530  -0.359397
   36  H  2  S   -0.000033  -0.832296  -0.000029   0.873408  -0.348370
   37  H  2  S   -0.000080  -2.208479   0.000036   0.136985   0.090602
   38  H  2  S    0.000008   0.178919   0.000003  -0.178757   0.082121
   39  H  2  X    0.034414  -0.191469  -0.358782   0.484564   0.068146
   40  H  2  Y    0.031266   0.262405  -0.325718  -0.526793   0.141271
   41  H  2  Z    0.010351  -0.155640  -0.107880  -0.020917  -0.653284
   42  H  2  X   -0.052617  -0.659358  -0.416998   0.155833   0.314250
   43  H  2  Y   -0.047718   0.981066  -0.378635  -0.059070  -0.236912
   44  H  2  Z   -0.015850  -0.769561  -0.125362  -0.339991  -0.329766
   45  H  2 XX    0.295672   0.172860  -0.584721   0.283905   0.411514
   46  H  2 YY   -0.078002  -0.207537   0.779549   0.143970   0.365057
   47  H  2 ZZ   -0.217670   0.034677  -0.194828  -0.427875  -0.776571
   48  H  2 XY    0.105403   0.508272   0.189199  -0.352714  -0.367325
   49  H  2 XZ   -0.366656  -0.431392  -0.475610  -0.276490  -0.017161
   50  H  2 YZ   -0.394374   0.637870  -0.190646   0.443105   0.361053
   51  H  3  S   -0.000022  -0.832881   0.000025  -0.873171  -0.348191
   52  H  3  S   -0.000061  -2.208879   0.000010  -0.136159   0.091066
   53  H  3  S    0.000005   0.178957  -0.000004   0.178665   0.082041
   54  H  3  X    0.034446  -0.127580  -0.358739  -0.423332   0.217453
   55  H  3  Y    0.031274   0.029266  -0.325729   0.303630  -0.402405
   56  H  3  Z    0.010369   0.335930  -0.107877   0.491041   0.491979
   57  H  3  X   -0.052613  -0.382251  -0.417080  -0.217188   0.351372
   58  H  3  Y   -0.047752  -0.028536  -0.378696   0.282247  -0.371698
   59  H  3  Z   -0.015780   1.357529  -0.125404  -0.130010  -0.046139
   60  H  3 XX    0.431009   0.377697  -0.347201  -0.273927   0.290032
   61  H  3 YY   -0.525370   0.474782  -0.005654  -0.110109  -0.039408
   62  H  3 ZZ    0.094361  -0.852479   0.352855   0.384036  -0.250624
   63  H  3 XY   -0.108164  -0.030485  -0.185608   0.325903  -0.047856
   64  H  3 XZ    0.256071   0.409386   0.617296   0.318370  -0.515421
   65  H  3 YZ    0.064098   0.051093   0.614129  -0.472522   0.708681

                     51         52         53         54         55
                    6.2628     6.3072     6.3849     6.4351     6.9179
                     A          A          A          A          A   
    1  O  1  S   -0.000001  -0.000002   0.000000  -0.016424   0.045753
    2  O  1  S   -0.000001  -0.000009   0.000006  -0.190978  -0.300469
    3  O  1  S    0.000015   0.000036   0.000002   0.281434  -0.562111
    4  O  1  S    0.000004   0.000004   0.000011   0.543524   0.945333
    5  O  1  X    0.000020  -0.008420  -0.000008   0.079019   0.214974
    6  O  1  Y    0.000020  -0.007644  -0.000007  -0.072217  -0.196610
    7  O  1  Z    0.000003  -0.002533  -0.000001  -0.044739  -0.121278
    8  O  1  X   -0.000012  -0.028608   0.000550  -0.351018  -0.135847
    9  O  1  Y    0.000007  -0.025951   0.000517   0.320731   0.124475
   10  O  1  Z    0.000022  -0.008578   0.000151   0.198946   0.075941
   11  O  1  X    0.000136   0.092762  -0.000133  -0.214868  -0.191836
   12  O  1  Y    0.000124   0.084221  -0.000118   0.196529   0.175424
   13  O  1  Z    0.000040   0.027891  -0.000040   0.121180   0.108300
   14  O  1 XX   -0.114205   1.014981   0.135388  -0.271243   0.511626
   15  O  1 YY    0.381396  -0.843625  -0.450966  -0.115715   0.251145
   16  O  1 ZZ   -0.267191  -0.171357   0.315578   0.386958  -0.762771
   17  O  1 XY    0.182649  -0.004422  -0.215810   0.875334   0.646622
   18  O  1 XZ   -0.532894  -0.152858   0.629488   0.557808   0.079186
   19  O  1 YZ   -0.392911  -0.460036   0.463984  -0.547341   0.602393
   20  O  1 XX    0.229464  -0.572229   0.020285   0.263681  -0.124581
   21  O  1 YY   -0.761066   0.475922  -0.066408   0.113538  -0.065586
   22  O  1 ZZ    0.531602   0.096307   0.046123  -0.377220   0.190168
   23  O  1 XY   -0.363679   0.002676  -0.031598  -0.764259  -0.483505
   24  O  1 XZ    1.060635   0.085596   0.092106  -0.499923  -0.179334
   25  O  1 YZ    0.781334   0.258904   0.067726   0.516150  -0.086061
   26  O  1 XXX  -0.254937   0.077588  -0.154110   0.106526   0.006852
   27  O  1 YYY  -0.771433   0.023789  -0.465675  -0.092449  -0.057635
   28  O  1 ZZZ   0.332086  -0.049023   0.200787  -0.034875  -0.146015
   29  O  1 XXY   0.416287   0.000702   0.250972   0.140508   0.108020
   30  O  1 XXZ  -0.845375  -0.039195  -0.510329   0.057497   0.090002
   31  O  1 YYX   0.091957  -0.016256   0.055309  -0.122916  -0.073313
   32  O  1 YYZ   0.399835   0.104967   0.240945  -0.010707   0.105897
   33  O  1 ZZX   0.250077  -0.087839   0.151452  -0.020004   0.064121
   34  O  1 ZZY   0.618699  -0.032618   0.373796  -0.016475  -0.030695
   35  O  1 XYZ  -0.008050   0.033141  -0.005160  -0.114191  -0.161208
   36  H  2  S    0.000004  -0.000001  -0.000005  -0.115321   0.073505
   37  H  2  S   -0.000006  -0.000010  -0.000019  -0.375996  -0.255964
   38  H  2  S    0.000000   0.000001   0.000003   0.010886  -0.079800
   39  H  2  X    0.374244   0.070605   0.261014   0.010720   0.250006
   40  H  2  Y    0.339783   0.064102   0.236987   0.021469  -0.301712
   41  H  2  Z    0.112511   0.021221   0.078476  -0.100445   0.079589
   42  H  2  X    0.364022  -0.117107   0.081279   0.139010   0.040758
   43  H  2  Y    0.330507  -0.106321   0.073811  -0.042645  -0.017394
   44  H  2  Z    0.109440  -0.035217   0.024436  -0.333549  -0.083031
   45  H  2 XX    0.506808   0.157265   0.366695   0.061340   0.082550
   46  H  2 YY   -0.631694  -0.146963  -0.489004   0.075718   0.218094
   47  H  2 ZZ    0.124886  -0.010302   0.122309  -0.137058  -0.300645
   48  H  2 XY   -0.136037  -0.011025  -0.118731  -0.023370  -0.314313
   49  H  2 XZ    0.327807   0.007531   0.298515   0.055194   0.178573
   50  H  2 YZ    0.096994  -0.046034   0.119751   0.013545  -0.126877
   51  H  3  S   -0.000007  -0.000010   0.000013  -0.116330   0.074740
   52  H  3  S   -0.000011  -0.000017  -0.000001  -0.376110  -0.255872
   53  H  3  S    0.000003   0.000003  -0.000002   0.011058  -0.079909
   54  H  3  X   -0.374115   0.071033  -0.261624   0.033336   0.196589
   55  H  3  Y   -0.339678   0.064490  -0.237547  -0.061898  -0.106492
   56  H  3  Z   -0.112478   0.021365  -0.078671   0.076008  -0.332270
   57  H  3  X   -0.364389  -0.116229  -0.081400   0.200820   0.055378
   58  H  3  Y   -0.330844  -0.105525  -0.073909  -0.268087  -0.070523
   59  H  3  Z   -0.109555  -0.034936  -0.024472   0.141599   0.028767
   60  H  3 XX   -0.336043   0.144479  -0.218428   0.028643  -0.044193
   61  H  3 YY    0.068197  -0.103413  -0.003513  -0.032625  -0.204185
   62  H  3 ZZ    0.267845  -0.041066   0.221941   0.003983   0.248378
   63  H  3 XY   -0.132787   0.009972  -0.116739   0.062334   0.019310
   64  H  3 XZ    0.455994  -0.053767   0.388265  -0.078036  -0.341748
   65  H  3 YZ    0.480025  -0.091353   0.386285   0.106370   0.236307

                     56         57         58
                    7.0091     7.4680     7.7186
                     A          A          A   
    1  O  1  S    0.000016   0.000156  -0.302495
    2  O  1  S    0.000121   0.001048  -2.407708
    3  O  1  S   -0.000316  -0.002978   5.674394
    4  O  1  S   -0.000016   0.000052   0.110577
    5  O  1  X   -0.010073  -0.069333   0.184385
    6  O  1  Y    0.036666   0.252512  -0.168498
    7  O  1  Z   -0.077224  -0.531924  -0.104428
    8  O  1  X    0.219899   0.159125  -1.378057
    9  O  1  Y   -0.801363  -0.577857   1.259773
   10  O  1  Z    1.688569   1.215753   0.779112
   11  O  1  X   -0.021707   0.028905  -0.033825
   12  O  1  Y    0.079127  -0.105295   0.030912
   13  O  1  Z   -0.166745   0.221825   0.019153
   14  O  1 XX   -0.070943   0.167461   0.115265
   15  O  1 YY   -0.236627   0.557772   0.055533
   16  O  1 ZZ    0.307570  -0.725233  -0.170798
   17  O  1 XY    0.186892  -0.440458   0.054980
   18  O  1 XZ   -0.291698   0.687296  -0.026306
   19  O  1 YZ    0.203686  -0.479634   0.152272
   20  O  1 XX   -0.210831  -0.259055  -0.943693
   21  O  1 YY   -0.702715  -0.864431  -0.454895
   22  O  1 ZZ    0.913546   1.123485   1.398589
   23  O  1 XY    0.554951   0.683148  -0.567201
   24  O  1 XZ   -0.866102  -1.065612   0.160688
   25  O  1 YZ    0.604609   0.744300  -1.227170
   26  O  1 XXX   0.094770   0.039156   0.652938
   27  O  1 YYY  -0.245757  -0.102236  -0.083321
   28  O  1 ZZZ  -0.098981  -0.008543   1.130898
   29  O  1 XXY  -0.348795  -0.188644  -0.065972
   30  O  1 XXZ   0.213313   0.068400  -0.454193
   31  O  1 YYX   0.738538   0.465512  -0.142889
   32  O  1 YYZ  -0.080515  -0.056939  -1.063065
   33  O  1 ZZX  -0.865684  -0.518044  -0.733119
   34  O  1 ZZY   0.678513   0.325808   0.177759
   35  O  1 XYZ  -0.576676  -0.384962   0.743538
   36  H  2  S    1.492680   1.203346  -2.043580
   37  H  2  S    0.398140   0.148380  -0.972227
   38  H  2  S   -0.238884   0.089221   0.183682
   39  H  2  X    0.302907   0.024403  -0.676253
   40  H  2  Y   -0.606826  -0.143081   0.820406
   41  H  2  Z    0.825000   0.350892  -0.228226
   42  H  2  X    0.052306   0.015066  -0.427959
   43  H  2  Y   -0.141387  -0.030125   0.516517
   44  H  2  Z    0.252975   0.040849  -0.136356
   45  H  2 XX   -0.213142   0.002551  -0.175478
   46  H  2 YY   -0.071915  -0.131832  -0.139486
   47  H  2 ZZ    0.285057   0.129281   0.314964
   48  H  2 XY    0.174840   0.415472   0.170149
   49  H  2 XZ    0.239105  -0.078244   0.046378
   50  H  2 YZ   -0.377478   0.154844  -0.182837
   51  H  3  S   -1.492781  -1.201230  -2.046030
   52  H  3  S   -0.397837  -0.147335  -0.972427
   53  H  3  S    0.238835  -0.089459   0.183666
   54  H  3  X   -0.060832   0.064901  -0.528246
   55  H  3  Y   -0.274213  -0.179815   0.280929
   56  H  3  Z    1.030353   0.327135   0.908568
   57  H  3  X    0.016474  -0.002682  -0.336273
   58  H  3  Y   -0.108603  -0.013757   0.182373
   59  H  3  Z    0.273137   0.050457   0.567704
   60  H  3 XX    0.231388  -0.098476  -0.134978
   61  H  3 YY    0.132379  -0.188104  -0.004195
   62  H  3 ZZ   -0.363767   0.286580   0.139172
   63  H  3 XY   -0.222770  -0.162975   0.062827
   64  H  3 XZ   -0.164822  -0.316253   0.213003
   65  H  3 YZ    0.325735   0.120593  -0.299331
 ...... END OF RHF CALCULATION ......
 CPU     0: STEP CPU TIME=     0.97 TOTAL CPU TIME=          1.0 (      0.0 MIN)
 TOTAL WALL CLOCK TIME=          1.4 SECONDS, CPU UTILIZATION IS    72.81%

     ---------------------------------------------------------------------
     PROPERTIES FOR THE WB97X-D  DFT FUNCTIONAL (RHF  TYPE) DENSITY MATRIX
     ---------------------------------------------------------------------

          -----------------
          ENERGY COMPONENTS
          -----------------

         WAVEFUNCTION NORMALIZATION =       1.0000000000

                ONE ELECTRON ENERGY =    -123.0475974227
                TWO ELECTRON ENERGY =      37.4574430839
           NUCLEAR REPULSION ENERGY =       9.1488590585
                                      ------------------
                       TOTAL ENERGY =     -76.4412952803

 ELECTRON-ELECTRON POTENTIAL ENERGY =      37.4574430839
  NUCLEUS-ELECTRON POTENTIAL ENERGY =    -199.2461988025
   NUCLEUS-NUCLEUS POTENTIAL ENERGY =       9.1488590585
                                      ------------------
             TOTAL POTENTIAL ENERGY =    -152.6398966600
               TOTAL KINETIC ENERGY =      76.1986013798
                 VIRIAL RATIO (V/T) =       2.0031850178

          ---------------------------------------
          MULLIKEN AND LOWDIN POPULATION ANALYSES
          ---------------------------------------

     ATOMIC MULLIKEN POPULATION IN EACH MOLECULAR ORBITAL

                      1          2          3          4          5

                  2.000000   2.000000   2.000000   2.000000   2.000000

    1             2.000227   1.539487   1.224819   1.732854   1.928643
    2            -0.000114   0.230208   0.387651   0.133586   0.035675
    3            -0.000113   0.230305   0.387530   0.133561   0.035682

               ----- POPULATIONS IN EACH AO -----
                             MULLIKEN      LOWDIN
              1  O  1  S      1.99806     1.95592
              2  O  1  S      0.62321     0.31285
              3  O  1  S      0.79674     0.30057
              4  O  1  S      0.30786     0.19105
              5  O  1  X      0.73321     0.58224
              6  O  1  Y      0.70527     0.55300
              7  O  1  Z      0.59609     0.44456
              8  O  1  X      0.69524     0.41586
              9  O  1  Y      0.66602     0.39884
             10  O  1  Z      0.55176     0.33524
             11  O  1  X      0.31065     0.28315
             12  O  1  Y      0.27784     0.26428
             13  O  1  Z      0.15052     0.19191
             14  O  1 XX      0.00077     0.12143
             15  O  1 YY      0.00027     0.12133
             16  O  1 ZZ      0.00069     0.12202
             17  O  1 XY      0.00069     0.00037
             18  O  1 XZ      0.00038     0.00037
             19  O  1 YZ      0.00000     0.00018
             20  O  1 XX      0.00205     0.10399
             21  O  1 YY      0.00165     0.10571
             22  O  1 ZZ      0.00307     0.11005
             23  O  1 XY      0.00248     0.00450
             24  O  1 XZ      0.00102     0.00609
             25  O  1 YZ      0.00000     0.00396
             26  O  1 XXX     0.00011     0.20076
             27  O  1 YYY     0.00004     0.19774
             28  O  1 ZZZ     0.00006     0.18273
             29  O  1 XXY     0.00011     0.09776
             30  O  1 XXZ     0.00005     0.07947
             31  O  1 YYX     0.00008     0.10298
             32  O  1 YYZ     0.00007     0.07648
             33  O  1 ZZX     0.00000     0.10249
             34  O  1 ZZY     0.00000     0.09367
             35  O  1 XYZ     0.00000     0.00141
             36  H  2  S      0.41248     0.23778
             37  H  2  S      0.26656     0.17694
             38  H  2  S      0.00676     0.04933
             39  H  2  X      0.00521     0.00900
             40  H  2  Y      0.00776     0.01130
             41  H  2  Z      0.00431     0.00736
             42  H  2  X      0.02804     0.07500
             43  H  2  Y      0.02736     0.07795
             44  H  2  Z      0.02083     0.04678
             45  H  2 XX      0.00124     0.07605
             46  H  2 YY      0.00157     0.09491
             47  H  2 ZZ      0.00188     0.07492
             48  H  2 XY      0.00118     0.01007
             49  H  2 XZ      0.00183     0.00747
             50  H  2 YZ      0.00000     0.00914
             51  H  3  S      0.41253     0.24522
             52  H  3  S      0.26646     0.17675
             53  H  3  S      0.00675     0.04924
             54  H  3  X      0.00361     0.00715
             55  H  3  Y      0.00243     0.00495
             56  H  3  Z      0.01125     0.01560
             57  H  3  X      0.02758     0.06937
             58  H  3  Y      0.02583     0.06015
             59  H  3  Z      0.02282     0.06814
             60  H  3 XX      0.00322     0.06594
             61  H  3 YY      0.00017     0.05665
             62  H  3 ZZ      0.00012     0.12458
             63  H  3 XY      0.00235     0.00092
             64  H  3 XZ      0.00184     0.01464
             65  H  3 YZ      0.00000     0.01175

          ----- MULLIKEN ATOMIC OVERLAP POPULATIONS -----
          (OFF-DIAGONAL ELEMENTS NEED TO BE MULTIPLIED BY 2)

             1           2           3

    1    7.7292883
    2    0.3483365   0.4558488
    3    0.3484053  -0.0171790   0.4557373

          TOTAL MULLIKEN AND LOWDIN ATOMIC POPULATIONS
       ATOM         MULL.POP.    CHARGE          LOW.POP.     CHARGE
    1 O             8.426030   -0.426030         8.064961   -0.064961
    2 H             0.787006    0.212994         0.964007    0.035993
    3 H             0.786964    0.213036         0.971032    0.028968

          MULLIKEN SPHERICAL HARMONIC POPULATIONS
       ATOM           S       P       D      F      G      H      I    TOTAL
    1 O             3.73    4.69    0.01   0.00   0.00   0.00   0.00    8.43
    2 H             0.69    0.09    0.01   0.00   0.00   0.00   0.00    0.79
    3 H             0.69    0.09    0.01   0.00   0.00   0.00   0.00    0.79

          -------------------------------
          BOND ORDER AND VALENCE ANALYSIS     BOND ORDER THRESHOLD=0.050
          -------------------------------

                   BOND                       BOND                       BOND
  ATOM PAIR DIST  ORDER      ATOM PAIR DIST  ORDER      ATOM PAIR DIST  ORDER
    1   2  0.962  1.018        1   3  0.961  1.018

                       TOTAL       BONDED        FREE
      ATOM            VALENCE     VALENCE     VALENCE
    1 O                 2.036       2.036       0.000
    2 H                 1.035       1.035       0.000
    3 H                 1.035       1.035       0.000

          ---------------------
          ELECTROSTATIC MOMENTS
          ---------------------

 POINT   1           X           Y           Z (BOHR)    CHARGE
                 6.624886    5.423679   -8.704175        0.00 (A.U.)
         DX          DY          DZ         /D/  (DEBYE)
    -1.350274    1.234814    0.762024    1.982092
 ...... END OF PROPERTY EVALUATION ......
 CPU     0: STEP CPU TIME=     0.01 TOTAL CPU TIME=          1.0 (      0.0 MIN)
 TOTAL WALL CLOCK TIME=          1.4 SECONDS, CPU UTILIZATION IS    72.96%

          -------------------------------------
          ---- POLARISABLE CONTINUUM MODEL ----
          ----      UNIVERSITY OF PISA     ----
          -------------------------------------

     ----------------------------
     INPUT FOR TESSERA DEFINITION
     ----------------------------
     NTSALL  =        60     MTHALL  =         4
     MTHAUT  =         0     AUTFRE  =    2.0000
     NTSFRZ  =        60     KEEPSM  =         0
     AREAKP  =   10.0000     BONDRY  =    1.0000
     AREATL  =    0.0100

     SPHERE     INITS       METHOD
          1        60       FIXPVA
          2        60       FIXPVA
          3        60       FIXPVA

     ------------------------------
      FIXPVA TESSELLATION FOR PCM
         PEIFENG SU AND HUI LI
     UNIVERSITY OF NEBRASKA-LINCOLN
     ------------------------------


     INPUT FOR CAVITY DEFINITION 
     ---------------------------
   ATOM               COORDINATES                RADIUS       EPS
      1      3.5496      2.8300     -4.6308      1.5000     78.3900
      2      3.0677      3.5165     -5.1010      1.2000     78.3900
      3      3.2479      2.8601     -3.7184      1.2000     78.3900

 MEMORY USED TO GENERATE CAVITY=    176782


 TOTAL NUMBER OF SPHERES=     3
 SPHERE           CENTER  (X,Y,Z) (A)               RADIUS (A)      AREA(A*A)
     1   3.549587368   2.829986773  -4.630795267   1.800000000  21.564687642
     2   3.067684061   3.516480318  -5.101047760   1.440000000  10.339349986
     3   3.247888095   2.860118236  -3.718354808   1.440000000  10.056552476

 TOTAL NUMBER OF TESSERAE=      88
 SURFACE AREA=    41.96059010(A**2)    CAVITY VOLUME=     28.13230943 (A**3)
 CPU     0: STEP CPU TIME=     0.00 TOTAL CPU TIME=          1.0 (      0.0 MIN)
 TOTAL WALL CLOCK TIME=          1.4 SECONDS, CPU UTILIZATION IS    72.98%

          THE SOLUTE IS ENCLOSED IN ONE CAVITY
 DONE CHECKING SEPARATION.
 CPU     0: STEP CPU TIME=     0.00 TOTAL CPU TIME=          1.0 (      0.0 MIN)
 TOTAL WALL CLOCK TIME=          1.4 SECONDS, CPU UTILIZATION IS    72.98%

 ..... DONE GENERATING CAVITY .....
 CPU     0: STEP CPU TIME=     0.00 TOTAL CPU TIME=          1.0 (      0.0 MIN)
 TOTAL WALL CLOCK TIME=          1.4 SECONDS, CPU UTILIZATION IS    72.98%
 NUCLEI-NUCLEAR CHARGE POLARIZATION ADJUSTMENT TO VNN=        0.0000000000

          --------------------------
           R-WB97X-D SCF CALCULATION
          --------------------------

     NUCLEAR ENERGY =         9.1488590585
     MAXIT =   30     NPUNCH=    2
     EXTRAP=T  DAMP=F  SHIFT=T  RSTRCT=F  DIIS=F  DEM=F  SOSCF=T
         DENSITY MATRIX CONVERGENCE THRESHOLD=  2.00E-06
     COARSE -> FINE DFT GRID SWITCH THRESHOLD=  3.00E-04 (SWITCH IN $DFT)
                   HF -> DFT SWITCH THRESHOLD=  5.00E-03 (SWOFF IN $DFT)
     SOSCF WILL OPTIMIZE     265 ORBITAL ROTATIONS, SOGTOL=   0.250
     MEMORY REQUIRED FOR RHF ITERS=    282347 WORDS.

 DIRECT SCF CALCULATION, SCHWRZ=T   FDIFF=F,  DIRTHR=  0.00E+00 NITDIR=10
 SCHWARZ INEQUALITY OVERHEAD:      2145 INTEGRALS, T=        0.00

                                                                                                                   NONZERO     BLOCKS
 ITER EX DEM     TOTAL ENERGY        E CHANGE  DENSITY CHANGE     ORB. GRAD      VIR. SHIFT       DAMPING        INTEGRALS    SKIPPED
          ---------------START SECOND ORDER SCF---------------
   1  0  0      -76.4491827127   -76.4491827127   0.012807087   0.009598792     0.000000000     0.000000000        2113874          0
   2  1  0      -76.4500172533    -0.0008345407   0.006513221   0.004453008     0.000000000     0.000000000        2113874          0
   3  2  0      -76.4501117953    -0.0000945419   0.002479703   0.003611080     0.000000000     0.000000000        2113874          0
   4  3  0      -76.4501564786    -0.0000446833   0.000384799   0.000430025     0.000000000     0.000000000        2113874          0
   5  4  0      -76.4501571332    -0.0000006546   0.000050308   0.000066037     0.000000000     0.000000000        2113874          0
   6  5  0      -76.4501571617    -0.0000000285   0.000014801   0.000008675     0.000000000     0.000000000        2113874          0
   7  6  0      -76.4501571624    -0.0000000007   0.000001506   0.000001033     0.000000000     0.000000000        2113874          0
   8  7  0      -76.4501571624     0.0000000000   0.000000379   0.000000186     0.000000000     0.000000000        2113874          0

          -----------------
          DENSITY CONVERGED
          -----------------
     TIME TO FORM FOCK OPERATORS=       0.8 SECONDS (       0.1 SEC/ITER)
     FOCK TIME ON FIRST ITERATION=       0.1, LAST ITERATION=       0.1
     TIME TO SOLVE SCF EQUATIONS=       0.0 SECONDS (       0.0 SEC/ITER)

          ----------------------------
          DFT-D PARAMETERS AND RESULTS
          ----------------------------
 C6 COEFFICIENTS USED:
       1 C6 FOR ELEMENT   1
  Z=  1 C6(AA)=    2.43
       1 C6 FOR ELEMENT   8
  Z=  8 C6(AA)=   12.14

 #          XYZ [AU]             R0(AA) [ANG.]  CN         C6(AA)     C8(AA)   C10(AA) [AU]
  1   6.70775   5.34790  -8.75093    8  1.220  1.988        12.1       245.0      6057.3
  2   5.79708   6.64518  -9.63958    1  0.910  0.995         2.4        29.4       434.7
  3   6.13762   5.40484  -7.02667    1  0.910  0.995         2.4        29.4       434.7

     MOLECULAR C6(AA) [AU] =        43.57

           DFT-D V2

 FUNCTIONAL: WB97X-D 

 PARAMETERS
 S6       :    1.0000
 RS6      :    1.1000
 USING CHAI-HEAD-GORDON DAMPING FUNCTION
 ALPHA6   :    6.0000

 EDISP /KCAL,AU:    -0.0186 -0.00002967

 E6    /KCAL :    -0.0186

 FINAL R-WB97X-D ENERGY IS      -76.4501868289 AFTER   8 ITERATIONS
 DFT EXCHANGE + CORRELATION ENERGY =        -6.4840577173
 TOTAL ELECTRON NUMBER             =        10.0000100195
 GRIMME'S DISPERSION ENERGY                     =       -0.0000296665
 ENERGY WITHOUT GRIMME'S DISPERSION CORRECTION IS      -76.4501571624

 Alpha HOMO=   -11.141597 eV, LUMO=    2.543618 eV, gap=   13.685215 eV
  
   PCM ASC=     -0.0073284771
   GCAVP  =      0.0000000000
   GDISP  =      0.0000000000
   GREP   =      0.0000000000

          ------------
          EIGENVECTORS
          ------------

                      1          2          3          4          5
                  -19.2500    -1.1136    -0.6240    -0.4829    -0.4094
                     A          A          A          A          A   
    1  O  1  S    0.996046  -0.229463   0.000027  -0.079039  -0.000010
    2  O  1  S    0.022974   0.333376  -0.000040   0.119201   0.000002
    3  O  1  S   -0.009534   0.381539  -0.000061   0.190471   0.000098
    4  O  1  S    0.003389   0.149306   0.000014   0.212329  -0.000206
    5  O  1  X   -0.001061  -0.056349   0.047135   0.297378   0.354268
    6  O  1  Y    0.000970   0.051504  -0.171634  -0.271896   0.321780
    7  O  1  Z    0.000599   0.031818   0.361709  -0.167756   0.106512
    8  O  1  X    0.000444  -0.030740   0.034422   0.235862   0.298798
    9  O  1  Y   -0.000406   0.028103  -0.125386  -0.215686   0.271407
   10  O  1  Z   -0.000251   0.017337   0.264243  -0.133024   0.089796
   11  O  1  X   -0.000248  -0.002543   0.011916   0.132929   0.204555
   12  O  1  Y    0.000227   0.002305  -0.043295  -0.121518   0.185596
   13  O  1  Z    0.000140   0.001423   0.091369  -0.074944   0.061533
   14  O  1 XX   -0.000111  -0.001544  -0.001532  -0.000215  -0.004259
   15  O  1 YY   -0.000055  -0.000771  -0.005099  -0.000028   0.003537
   16  O  1 ZZ    0.000166   0.002316   0.006631   0.000243   0.000722
   17  O  1 XY   -0.000179  -0.002836   0.004029   0.005012   0.000012
   18  O  1 XZ   -0.000036  -0.000676  -0.006287   0.002568   0.000650
   19  O  1 YZ   -0.000123  -0.001652   0.004386  -0.001242   0.001936
   20  O  1 XX   -0.000126   0.000162  -0.001853  -0.002651  -0.014965
   21  O  1 YY   -0.000059   0.000035  -0.006179  -0.001078   0.012426
   22  O  1 ZZ    0.000184  -0.000196   0.008032   0.003729   0.002539
   23  O  1 XY    0.000034  -0.002337   0.004868   0.012336   0.000049
   24  O  1 XZ    0.000075  -0.001214  -0.007601   0.007311   0.002281
   25  O  1 YZ   -0.000184   0.000655   0.005304  -0.006028   0.006786
   26  O  1 XXX   0.000157  -0.000430  -0.000504  -0.002012  -0.000256
   27  O  1 YYY  -0.000022  -0.000052   0.001306   0.001064   0.000888
   28  O  1 ZZZ   0.000266  -0.001040   0.001446  -0.001247   0.001756
   29  O  1 XXY  -0.000012   0.000249   0.000659  -0.001341  -0.002917
   30  O  1 XXZ  -0.000106   0.000478  -0.001705   0.000055  -0.000531
   31  O  1 YYX  -0.000037  -0.000042   0.000425   0.001458  -0.002122
   32  O  1 YYZ  -0.000251   0.000916  -0.000236   0.001618  -0.001825
   33  O  1 ZZX  -0.000174   0.000618   0.000251   0.001241   0.002465
   34  O  1 ZZY   0.000042  -0.000179  -0.002411  -0.000087   0.001726
   35  O  1 XYZ   0.000173  -0.000808  -0.000916   0.000107  -0.001989
   36  H  2  S   -0.000106   0.131827  -0.209955  -0.120870   0.000056
   37  H  2  S   -0.000054   0.052190  -0.157484  -0.113723   0.000105
   38  H  2  S   -0.000377  -0.000431  -0.009958  -0.003549  -0.000041
   39  H  2  X   -0.000298   0.007360  -0.008941  -0.000021   0.006252
   40  H  2  Y    0.000395  -0.010747   0.011107   0.002547   0.005674
   41  H  2  Z   -0.000202   0.007985  -0.003806  -0.007629   0.001884
   42  H  2  X    0.000028   0.009834  -0.013009   0.006187   0.019796
   43  H  2  Y   -0.000083  -0.014838   0.015715   0.000524   0.018008
   44  H  2  Z    0.000156   0.011980  -0.003959  -0.021975   0.005941
   45  H  2 XX    0.000004  -0.000992   0.000103   0.001877   0.002399
   46  H  2 YY   -0.000141   0.001530  -0.002189   0.000448  -0.003217
   47  H  2 ZZ    0.000137  -0.000538   0.002086  -0.002325   0.000818
   48  H  2 XY    0.000281  -0.003943   0.004571   0.000431  -0.000785
   49  H  2 XZ   -0.000162   0.002680  -0.002447  -0.001557   0.001975
   50  H  2 YZ    0.000195  -0.004047   0.003070   0.003301   0.000805
   51  H  3  S   -0.000106   0.131880   0.209976  -0.120846  -0.000002
   52  H  3  S   -0.000053   0.052274   0.157440  -0.113862   0.000086
   53  H  3  S   -0.000378  -0.000440   0.009967  -0.003552  -0.000034
   54  H  3  X   -0.000208   0.004414   0.006792   0.001833   0.006250
   55  H  3  Y    0.000068  -0.000016  -0.003277  -0.004209   0.005675
   56  H  3  Z    0.000488  -0.014633  -0.012685   0.006604   0.001881
   57  H  3  X   -0.000013   0.005593   0.010268   0.010668   0.019843
   58  H  3  Y    0.000069   0.000700  -0.005667  -0.015879   0.018032
   59  H  3  Z   -0.000165  -0.020736  -0.017114   0.012552   0.005932
   60  H  3 XX    0.000106  -0.002410  -0.001684   0.002182   0.001414
   61  H  3 YY    0.000197  -0.003198  -0.003099   0.001472   0.000045
   62  H  3 ZZ   -0.000303   0.005608   0.004783  -0.003654  -0.001459
   63  H  3 XY    0.000014  -0.000212  -0.000396  -0.000372   0.000771
   64  H  3 XZ    0.000256  -0.003139  -0.004058  -0.000307  -0.002563
   65  H  3 YZ   -0.000096   0.000017   0.001476   0.002427  -0.002544

                      6          7          8          9         10
                    0.0935     0.1551     0.3623     0.3805     0.4133
                     A          A          A          A          A   
    1  O  1  S   -0.065592   0.000034   0.000055   0.091071   0.039334
    2  O  1  S    0.161987  -0.000083  -0.000048  -0.032953  -0.019792
    3  O  1  S   -0.005634  -0.000031  -0.000274  -0.776497  -0.332514
    4  O  1  S    0.834047  -0.000440  -0.001391  -2.202577   0.092494
    5  O  1  X   -0.078044   0.023146   0.019306  -0.032085   0.228416
    6  O  1  Y    0.071226  -0.084040  -0.071370   0.028878  -0.208097
    7  O  1  Z    0.044078   0.177068   0.150132   0.017725  -0.128508
    8  O  1  X   -0.046492   0.003164   0.066052   0.137079   0.416066
    9  O  1  Y    0.042208  -0.011035  -0.242407  -0.126286  -0.378847
   10  O  1  Z    0.026271   0.023463   0.510059  -0.078221  -0.234075
   11  O  1  X   -0.140772   0.061133   0.179644   1.256786  -0.530628
   12  O  1  Y    0.128910  -0.222946  -0.648277  -1.146921   0.482026
   13  O  1  Z    0.079879   0.468961   1.365039  -0.709563   0.298306
   14  O  1 XX    0.000885   0.000112   0.002928  -0.006072  -0.003676
   15  O  1 YY    0.000424   0.000379   0.009741  -0.003075  -0.001640
   16  O  1 ZZ   -0.001309  -0.000491  -0.012669   0.009148   0.005317
   17  O  1 XY    0.000319  -0.000302  -0.007712  -0.013033   0.005709
   18  O  1 XZ   -0.000256   0.000470   0.012013  -0.003589   0.004533
   19  O  1 YZ    0.001189  -0.000326  -0.008392  -0.006154  -0.006248
   20  O  1 XX    0.007055   0.004897  -0.014855   0.025244   0.004985
   21  O  1 YY    0.003328   0.016350  -0.049463   0.012939   0.002158
   22  O  1 ZZ   -0.010382  -0.021247   0.064318  -0.038183  -0.007143
   23  O  1 XY    0.001974  -0.012900   0.039129   0.067688  -0.014560
   24  O  1 XZ   -0.002345   0.020124  -0.060977   0.021565  -0.009490
   25  O  1 YZ    0.009617  -0.014068   0.042563   0.023027   0.009742
   26  O  1 XXX  -0.002040  -0.000152  -0.001120  -0.007952  -0.005301
   27  O  1 YYY   0.000258   0.000401   0.002918   0.002681   0.000389
   28  O  1 ZZZ  -0.003520  -0.000430   0.004807  -0.009135  -0.009996
   29  O  1 XXY   0.000202   0.001333  -0.000630  -0.002395   0.001092
   30  O  1 XXZ   0.001408   0.000027  -0.004778   0.002747   0.004178
   31  O  1 YYX   0.000459  -0.004006   0.008535   0.003853   0.000788
   32  O  1 YYZ   0.003315   0.000551  -0.001671   0.009509   0.009233
   33  O  1 ZZX   0.002278   0.004210  -0.007033   0.006816   0.006324
   34  O  1 ZZY  -0.000549  -0.001871  -0.003285  -0.001202  -0.001614
   35  O  1 XYZ  -0.002311   0.003504  -0.008986  -0.004077  -0.006913
   36  H  2  S   -0.049542   0.022021   0.180992   0.132498   0.110357
   37  H  2  S   -0.042555  -0.095403   1.952517   2.306029   0.637413
   38  H  2  S   -0.789108   1.827730  -0.443179  -0.421548  -0.524129
   39  H  2  X    0.008099  -0.011073   0.002662   0.005089   0.002557
   40  H  2  Y   -0.012336   0.014771  -0.006683  -0.003140  -0.005791
   41  H  2  Z    0.010257  -0.007746   0.011425  -0.007424   0.008943
   42  H  2  X    0.015995  -0.031452   0.099582   0.129202   0.021184
   43  H  2  Y   -0.021345   0.046949  -0.149401  -0.198391   0.008131
   44  H  2  Z    0.011665  -0.037422   0.118992   0.169129  -0.095116
   45  H  2 XX   -0.000951   0.001170  -0.004854  -0.006075   0.000684
   46  H  2 YY    0.002426  -0.003177   0.008815   0.006157   0.006290
   47  H  2 ZZ   -0.001475   0.002006  -0.003962  -0.000083  -0.006974
   48  H  2 XY   -0.005080   0.007796  -0.019203  -0.019130  -0.013425
   49  H  2 XZ    0.003943  -0.004510   0.015863   0.012290   0.005533
   50  H  2 YZ   -0.005272   0.006540  -0.022018  -0.020348  -0.006653
   51  H  3  S   -0.049544  -0.021927  -0.180834   0.132788   0.110264
   52  H  3  S   -0.042994   0.095661  -1.949875   2.308962   0.637030
   53  H  3  S   -0.790640  -1.827089   0.442833  -0.421816  -0.524170
   54  H  3  X    0.004507   0.007671   0.000497   0.006189   0.000040
   55  H  3  Y    0.000798  -0.002393  -0.004727  -0.007152   0.003385
   56  H  3  Z   -0.017389  -0.018318   0.012655   0.001045  -0.010422
   57  H  3  X    0.010896   0.018060  -0.057098   0.070505   0.041424
   58  H  3  Y   -0.003197   0.001808  -0.005799   0.015665  -0.065304
   59  H  3  Z   -0.026678  -0.065294   0.207272  -0.282032   0.059741
   60  H  3 XX   -0.002993  -0.003827   0.012698  -0.012515  -0.003562
   61  H  3 YY   -0.004362  -0.005666   0.017356  -0.015272  -0.007873
   62  H  3 ZZ    0.007355   0.009493  -0.030054   0.027786   0.011436
   63  H  3 XY    0.000293  -0.000804  -0.001479  -0.002210  -0.002243
   64  H  3 XZ   -0.004442  -0.006398   0.016376  -0.014126  -0.011908
   65  H  3 YZ    0.000580   0.001070  -0.000506  -0.001927   0.005521

                     11         12         13         14         15
                    0.4207     0.5335     0.6173     0.8062     0.8531
                     A          A          A          A          A   
    1  O  1  S   -0.000073   0.000014   0.143091   0.019164  -0.000030
    2  O  1  S   -0.000063   0.000015  -0.036932  -0.039991   0.000085
    3  O  1  S    0.000938  -0.000178  -1.500329  -0.081723   0.000031
    4  O  1  S    0.001055   0.000479   5.333768   2.607779  -0.002728
    5  O  1  X   -0.217323  -0.039723   0.017239  -0.059556  -0.000024
    6  O  1  Y   -0.198072   0.145221  -0.015853   0.054452  -0.000004
    7  O  1  Z   -0.066030  -0.305654  -0.009727   0.033581  -0.000103
    8  O  1  X   -0.433459  -0.056851  -0.275142  -0.455771   0.000267
    9  O  1  Y   -0.394363   0.208078   0.251455   0.416813  -0.000772
   10  O  1  Z   -0.131782  -0.437815   0.155264   0.257218   0.000205
   11  O  1  X    0.887661   0.247163  -0.754417  -0.835811   0.000481
   12  O  1  Y    0.810159  -0.902800   0.690527   0.764475  -0.001075
   13  O  1  Z    0.268942   1.900793   0.426007   0.471775  -0.000183
   14  O  1 XX    0.006064   0.001835   0.010043  -0.012235   0.003926
   15  O  1 YY   -0.005043   0.006130   0.004877  -0.005531  -0.012988
   16  O  1 ZZ   -0.001021  -0.007965  -0.014920   0.017765   0.009062
   17  O  1 XY    0.000002  -0.004835   0.009103   0.018441  -0.006220
   18  O  1 XZ   -0.000914   0.007543  -0.000213   0.014813   0.018089
   19  O  1 YZ   -0.002760  -0.005263   0.012494  -0.020749   0.013345
   20  O  1 XX   -0.009164  -0.009374  -0.045837   0.013401   0.004462
   21  O  1 YY    0.007656  -0.031297  -0.022442   0.005747  -0.014889
   22  O  1 ZZ    0.001508   0.040671   0.068279  -0.019148   0.010427
   23  O  1 XY   -0.000084   0.024701  -0.053975  -0.040045  -0.006907
   24  O  1 XZ    0.001400  -0.038521  -0.005118  -0.025996   0.020461
   25  O  1 YZ    0.004107   0.026898  -0.054725   0.026493   0.015259
   26  O  1 XXX   0.000003  -0.000168   0.008144   0.011376   0.009101
   27  O  1 YYY   0.000127   0.000421  -0.001105  -0.010799   0.027559
   28  O  1 ZZZ   0.000184   0.000347   0.013900  -0.006362  -0.011876
   29  O  1 XXY  -0.000366   0.000382  -0.000683   0.016757  -0.014865
   30  O  1 XXZ  -0.000071  -0.000485  -0.005536   0.007748   0.030191
   31  O  1 YYX  -0.000290  -0.000451  -0.001889  -0.014306  -0.003243
   32  O  1 YYZ  -0.000176   0.000020  -0.013114   0.000787  -0.014257
   33  O  1 ZZX   0.000286   0.000676  -0.009037  -0.000957  -0.008966
   34  O  1 ZZY   0.000195  -0.000946   0.002166  -0.002269  -0.022109
   35  O  1 XYZ  -0.000232   0.000243   0.009054  -0.014968   0.000289
   36  H  2  S   -0.000088  -0.055782  -0.032957   0.036848  -0.000178
   37  H  2  S   -0.002771   0.334758  -1.783466  -1.617415   0.002499
   38  H  2  S    0.001523   1.605659  -0.573499   0.002489  -0.000012
   39  H  2  X    0.007751  -0.004677   0.004301  -0.019283   0.035767
   40  H  2  Y    0.007062   0.002832  -0.004278   0.007364   0.032430
   41  H  2  Z    0.002354   0.006925  -0.001250   0.042086   0.010726
   42  H  2  X   -0.043112   0.115770  -0.251516   0.251522  -0.569437
   43  H  2  Y   -0.038638  -0.143966   0.314152   0.003245  -0.517663
   44  H  2  Z   -0.013437   0.050437  -0.113309  -0.848937  -0.170349
   45  H  2 XX    0.000113  -0.000144   0.001228   0.025641  -0.021461
   46  H  2 YY    0.000259   0.000849  -0.006408   0.014433   0.023250
   47  H  2 ZZ   -0.000372  -0.000705   0.005181  -0.040074  -0.001788
   48  H  2 XY    0.000246  -0.000828   0.016770  -0.002531   0.003517
   49  H  2 XZ   -0.000718   0.001567  -0.006994  -0.008565  -0.007132
   50  H  2 YZ   -0.000548  -0.001603   0.010524   0.032962   0.001251
   51  H  3  S    0.000255   0.055719  -0.033026   0.036864   0.000033
   52  H  3  S    0.000586  -0.334922  -1.783576  -1.617596   0.000705
   53  H  3  S   -0.001839  -1.605812  -0.573431   0.002427   0.000078
   54  H  3  X    0.007754   0.005710   0.004004  -0.026909  -0.035789
   55  H  3  Y    0.007052  -0.006644  -0.003273   0.034890  -0.032513
   56  H  3  Z    0.002305   0.001074  -0.003411  -0.016001  -0.010744
   57  H  3  X   -0.042819  -0.087657  -0.189427   0.423879   0.570057
   58  H  3  Y   -0.038976   0.041787   0.088781  -0.621098   0.518229
   59  H  3  Z   -0.012730   0.165090   0.361878   0.467836   0.171505
   60  H  3 XX    0.000379   0.000795   0.006226   0.024085   0.017053
   61  H  3 YY   -0.000687   0.001302   0.010227   0.009091  -0.008695
   62  H  3 ZZ    0.000308  -0.002097  -0.016453  -0.033176  -0.008357
   63  H  3 XY   -0.000224  -0.000876   0.003617   0.001667   0.003398
   64  H  3 XZ    0.000580   0.001098   0.013536  -0.015128  -0.013053
   65  H  3 YZ    0.000372  -0.000251  -0.003796   0.037535  -0.016246

                     16         17         18         19         20
                    0.9626     1.1356     1.2592     1.2691     1.5105
                     A          A          A          A          A   
    1  O  1  S    0.000008   0.000035   0.087255   0.000563  -0.083040
    2  O  1  S   -0.000083   0.000151   0.404023   0.002568   0.076465
    3  O  1  S    0.000245  -0.001498  -3.043163  -0.019144   1.772076
    4  O  1  S    0.001247  -0.001715  -3.760817  -0.023846   1.022143
    5  O  1  X   -0.082585   0.007266  -0.099344  -0.025535  -0.116791
    6  O  1  Y   -0.075034  -0.026529   0.090404   0.091235   0.106839
    7  O  1  Z   -0.024818   0.055999   0.057343  -0.190693   0.065900
    8  O  1  X   -0.268993  -0.178402   1.075582   0.159746  -0.575776
    9  O  1  Y   -0.243753   0.651281  -0.981066  -0.563446   0.526779
   10  O  1  Z   -0.081059  -1.373095  -0.614994   1.170055   0.324235
   11  O  1  X   -0.397835  -0.189206   0.802262   0.020814  -0.061931
   12  O  1  Y   -0.360542   0.690486  -0.733574  -0.061819   0.056738
   13  O  1  Z   -0.119547  -1.455430  -0.453256   0.117646   0.034687
   14  O  1 XX   -0.015320   0.000829   0.000426   0.000568   0.003402
   15  O  1 YY    0.012727   0.002748   0.000210   0.001897   0.001656
   16  O  1 ZZ    0.002594  -0.003577  -0.000636  -0.002466  -0.005058
   17  O  1 XY    0.000061  -0.002167   0.000685  -0.001498   0.003648
   18  O  1 XZ    0.002327   0.003388   0.000122   0.002340   0.000203
   19  O  1 YZ    0.006960  -0.002362   0.000489  -0.001635   0.004127
   20  O  1 XX   -0.081754   0.089062   0.270458  -0.108023   0.184485
   21  O  1 YY    0.067943   0.296167   0.135204  -0.364644   0.091674
   22  O  1 ZZ    0.013811  -0.385229  -0.405662   0.472667  -0.276158
   23  O  1 XY    0.000237  -0.233825   0.374094   0.291212   0.302598
   24  O  1 XZ    0.012469   0.364995   0.061734  -0.450213   0.062894
   25  O  1 YZ    0.036986  -0.254592   0.309169   0.316425   0.204126
   26  O  1 XXX   0.005777   0.005664  -0.074703   0.000983  -0.018947
   27  O  1 YYY  -0.005355  -0.014837   0.018469  -0.003613   0.004198
   28  O  1 ZZZ  -0.015287  -0.024088  -0.104631   0.010393  -0.027861
   29  O  1 XXY   0.021415   0.002583  -0.009393  -0.021829  -0.001510
   30  O  1 XXZ   0.001913   0.024108   0.037094  -0.004312   0.010208
   31  O  1 YYX   0.014664  -0.041344   0.027200   0.071212   0.006390
   32  O  1 YYZ   0.018597   0.008210   0.103283  -0.009632   0.027172
   33  O  1 ZZX  -0.022414   0.033745   0.073025  -0.072531   0.019030
   34  O  1 ZZY  -0.014231   0.017323  -0.015387   0.026677  -0.004122
   35  O  1 XYZ   0.016262   0.043784  -0.058129  -0.063852  -0.016245
   36  H  2  S    0.000163   0.256503  -0.465856  -0.325406  -0.297508
   37  H  2  S   -0.001429  -2.970885   4.176549   2.438120  -0.847447
   38  H  2  S    0.000052   0.315855  -0.430156  -0.724619  -0.130615
   39  H  2  X   -0.044666  -0.010101   0.026069   0.067037   0.052869
   40  H  2  Y   -0.040534   0.032369  -0.042940  -0.074821  -0.075566
   41  H  2  Z   -0.013439  -0.064166   0.043013   0.003055   0.052374
   42  H  2  X    0.646582  -0.845104   0.854174   0.146676  -0.613087
   43  H  2  Y    0.587779   0.877936  -1.181463  -0.536677   0.893818
   44  H  2  Z    0.194292   0.158720   0.727566   1.133287  -0.660133
   45  H  2 XX    0.007982   0.012506  -0.018460  -0.020447   0.013883
   46  H  2 YY   -0.017520  -0.029250   0.040870   0.032735   0.015063
   47  H  2 ZZ    0.009537   0.016744  -0.022410  -0.012288  -0.028946
   48  H  2 XY   -0.006925   0.072537  -0.103009  -0.063870   0.003884
   49  H  2 XZ    0.019636  -0.043461   0.061385   0.065844   0.012556
   50  H  2 YZ    0.013275   0.063709  -0.090954  -0.088317   0.004970
   51  H  3  S    0.000006  -0.256663  -0.469565   0.319211  -0.297487
   52  H  3  S   -0.000230   2.974491   4.206487  -2.384761  -0.845678
   53  H  3  S   -0.000083  -0.316158  -0.439115   0.719027  -0.130662
   54  H  3  X   -0.044625  -0.006841   0.012797  -0.056943   0.032917
   55  H  3  Y   -0.040512   0.029416   0.007564   0.038775  -0.002877
   56  H  3  Z   -0.013423  -0.066042  -0.065404   0.072277  -0.100789
   57  H  3  X    0.646429   0.768183   0.558185   0.155631  -0.368431
   58  H  3  Y    0.586795  -0.596874  -0.104588  -0.539983   0.004064
   59  H  3  Z    0.194383  -0.752802  -1.540379   1.112740   1.213029
   60  H  3 XX   -0.000816  -0.037525  -0.054344   0.049662   0.008021
   61  H  3 YY    0.011550  -0.054074  -0.077438   0.065923  -0.004409
   62  H  3 ZZ   -0.010734   0.091599   0.131782  -0.115585  -0.003613
   63  H  3 XY    0.006917  -0.006779  -0.010019  -0.014960   0.019254
   64  H  3 XZ   -0.020762  -0.059202  -0.084085   0.055816  -0.011449
   65  H  3 YZ   -0.016518   0.007904   0.010054   0.002759   0.021706

                     21         22         23         24         25
                    1.5698     1.8391     1.9185     1.9426     2.1557
                     A          A          A          A          A   
    1  O  1  S   -0.000009   0.000000   0.000008  -0.008740  -0.019937
    2  O  1  S    0.000070  -0.000045  -0.000146   0.104828   0.265880
    3  O  1  S    0.000624   0.000080   0.000013   0.078954   0.008358
    4  O  1  S   -0.000092  -0.000216  -0.002218   2.286423   1.130894
    5  O  1  X    0.021478  -0.136838   0.000302  -0.363861  -0.336292
    6  O  1  Y   -0.078408  -0.124337  -0.000324   0.332626   0.307420
    7  O  1  Z    0.165238  -0.041234  -0.000138   0.205302   0.189594
    8  O  1  X    0.251696  -0.034271   0.000104   0.042916   0.330750
    9  O  1  Y   -0.917154  -0.031064  -0.000019  -0.039150  -0.302336
   10  O  1  Z    1.932407  -0.010174   0.000194  -0.024132  -0.186364
   11  O  1  X    0.068401  -0.352675   0.000785  -0.801611  -0.107643
   12  O  1  Y   -0.248902  -0.320348  -0.000723   0.732986   0.098411
   13  O  1  Z    0.524225  -0.106096  -0.000305   0.452386   0.060572
   14  O  1 XX    0.003102  -0.014002  -0.002577   0.003512   0.008717
   15  O  1 YY    0.010341   0.011622   0.008521   0.001835   0.004208
   16  O  1 ZZ   -0.013442   0.002380  -0.005945  -0.005347  -0.012925
   17  O  1 XY   -0.008169   0.000054   0.004055   0.011529   0.006189
   18  O  1 XZ    0.012742   0.002131  -0.011870   0.004028  -0.001024
   19  O  1 YZ   -0.008894   0.006365  -0.008739   0.002799   0.011159
   20  O  1 XX   -0.012841   0.970755   0.185954   0.072046  -0.568497
   21  O  1 YY   -0.043027  -0.805989  -0.615606   0.020633  -0.266013
   22  O  1 ZZ    0.055868  -0.164766   0.429652  -0.092679   0.834511
   23  O  1 XY    0.034286  -0.003584  -0.293002  -0.882969   0.188199
   24  O  1 XZ   -0.053170  -0.147790   0.857417  -0.467415   0.358543
   25  O  1 YZ    0.037160  -0.441284   0.630849   0.267244  -0.839196
   26  O  1 XXX  -0.004247  -0.012316  -0.005646  -0.023646  -0.023865
   27  O  1 YYY   0.011010  -0.007256  -0.017125   0.000482   0.008508
   28  O  1 ZZZ   0.015075   0.001872   0.007434  -0.047941  -0.026190
   29  O  1 XXY   0.001625   0.010596   0.009226   0.007214  -0.008008
   30  O  1 XXZ  -0.016158   0.008795  -0.018799   0.020639   0.007498
   31  O  1 YYX   0.017754   0.010599   0.002044   0.002014   0.012093
   32  O  1 YYZ  -0.004068  -0.011306   0.008825   0.043681   0.027639
   33  O  1 ZZX  -0.012057   0.005924   0.005532   0.029711   0.019925
   34  O  1 ZZY  -0.016396  -0.000862   0.013749  -0.007860  -0.003406
   35  O  1 XYZ  -0.020687   0.001685  -0.000168  -0.034440  -0.010966
   36  H  2  S    0.215535   0.000009   0.000170  -0.211387  -0.330811
   37  H  2  S    2.419417   0.000203   0.001538  -1.170033  -0.345365
   38  H  2  S   -0.039988  -0.000045   0.000090  -0.140066  -0.157572
   39  H  2  X   -0.029417  -0.023688  -0.031804   0.025294   0.066960
   40  H  2  Y    0.043232  -0.021505  -0.028809  -0.049596  -0.063569
   41  H  2  Z   -0.032678  -0.007127  -0.009617   0.065479  -0.030710
   42  H  2  X    1.039816   0.459521   0.475545  -0.031478  -0.526000
   43  H  2  Y   -1.481699   0.417167   0.431320   0.251149   0.470724
   44  H  2  Z    1.016157   0.138166   0.143728  -0.650685   0.327802
   45  H  2 XX   -0.000274   0.035516   0.005637  -0.002506  -0.032944
   46  H  2 YY    0.027851  -0.026416  -0.022338   0.013104  -0.009553
   47  H  2 ZZ   -0.027577  -0.009100   0.016701  -0.010597   0.042497
   48  H  2 XY   -0.036350   0.001813  -0.011204  -0.049016  -0.029274
   49  H  2 XZ    0.039905  -0.011305   0.033018   0.007478   0.014034
   50  H  2 YZ   -0.040486  -0.020916   0.024830  -0.019078  -0.051719
   51  H  3  S   -0.215922   0.000061   0.000216  -0.211336  -0.330643
   52  H  3  S   -2.419358  -0.000048   0.000705  -1.170363  -0.345494
   53  H  3  S    0.039894   0.000080   0.000180  -0.140039  -0.157338
   54  H  3  X    0.017483  -0.023692   0.031777   0.005996   0.065238
   55  H  3  Y    0.000351  -0.021507   0.028835   0.020999  -0.057317
   56  H  3  Z   -0.059228  -0.007105   0.009633  -0.083157  -0.043900
   57  H  3  X   -0.650803   0.459505  -0.475723   0.130015  -0.533565
   58  H  3  Y    0.064208   0.417229  -0.431433  -0.341187   0.498268
   59  H  3  Z    1.970707   0.138156  -0.143316   0.595284   0.270049
   60  H  3 XX    0.019916   0.038010   0.008605  -0.012863  -0.037414
   61  H  3 YY    0.037662  -0.034614  -0.024771  -0.021439  -0.024372
   62  H  3 ZZ   -0.057578  -0.003396   0.016166   0.034302   0.061786
   63  H  3 XY   -0.015381  -0.002090  -0.011243  -0.021753  -0.017561
   64  H  3 XZ    0.040768   0.000108   0.032638  -0.035073  -0.004187
   65  H  3 YZ   -0.015851  -0.012517   0.023485   0.010620  -0.039014

                     26         27         28         29         30
                    2.1814     2.3845     2.7637     3.4667     3.4785
                     A          A          A          A          A   
    1  O  1  S   -0.000002   0.000001  -0.046473   0.000001  -0.000002
    2  O  1  S   -0.000062   0.000074   1.039828   0.000033   0.000202
    3  O  1  S    0.000135  -0.000137  -0.443661  -0.000068   0.000119
    4  O  1  S   -0.000120  -0.000094   3.735136   0.000050   0.000296
    5  O  1  X   -0.097201  -0.830925   0.558333   0.018418  -0.073503
    6  O  1  Y    0.353949  -0.754590  -0.510556   0.016285   0.267866
    7  O  1  Z   -0.746072  -0.249837  -0.315010   0.006227  -0.564156
    8  O  1  X    0.124173   1.206412  -1.520794  -0.034318   0.343140
    9  O  1  Y   -0.452171   1.095531   1.390697  -0.029147  -1.250466
   10  O  1  Z    0.953198   0.362739   0.858153  -0.013575   2.634341
   11  O  1  X   -0.120327  -0.328606  -0.342463  -0.075792   0.031903
   12  O  1  Y    0.438328  -0.298529   0.313203  -0.068611  -0.116683
   13  O  1  Z   -0.923470  -0.098756   0.193357  -0.023100   0.245733
   14  O  1 XX   -0.002200   0.003889   0.001469   0.026290  -0.004591
   15  O  1 YY   -0.007323  -0.003225   0.000591  -0.021804  -0.015437
   16  O  1 ZZ    0.009523  -0.000663  -0.002060  -0.004486   0.020028
   17  O  1 XY    0.005775  -0.000012  -0.007701  -0.000115   0.012183
   18  O  1 XZ   -0.009020  -0.000594  -0.004471  -0.003979  -0.019000
   19  O  1 YZ    0.006293  -0.001769   0.003520  -0.011960   0.013240
   20  O  1 XX    0.095945  -0.238687  -0.242852   0.200972  -0.137713
   21  O  1 YY    0.319667   0.198174  -0.122734  -0.166132  -0.459777
   22  O  1 ZZ   -0.415612   0.040513   0.365586  -0.034840   0.597490
   23  O  1 XY   -0.252490   0.000942  -0.549834  -0.001232   0.362922
   24  O  1 XZ    0.393822   0.036313  -0.157214  -0.029825  -0.566316
   25  O  1 YZ   -0.274718   0.108637  -0.240441  -0.091782   0.395069
   26  O  1 XXX  -0.004941   0.004017  -0.039806   0.329234   0.038743
   27  O  1 YYY   0.012922   0.002069   0.009182   0.138075  -0.099724
   28  O  1 ZZZ   0.022668  -0.001050  -0.057515  -0.143029  -0.157032
   29  O  1 XXY  -0.004472  -0.002621  -0.003844  -0.113473   0.010299
   30  O  1 XXZ  -0.022044  -0.002687   0.020837  -0.196288   0.158891
   31  O  1 YYX   0.044063  -0.002856   0.013918  -0.156128  -0.253662
   32  O  1 YYZ  -0.008368   0.004095   0.056327   0.388182   0.051790
   33  O  1 ZZX  -0.037434  -0.002532   0.039486  -0.285585   0.201683
   34  O  1 ZZY  -0.012864  -0.000154  -0.008475  -0.071774   0.123494
   35  O  1 XYZ  -0.045511  -0.000003  -0.033103   0.064644   0.272258
   36  H  2  S   -0.305056   0.000078  -0.656652  -0.001084   0.834592
   37  H  2  S   -0.068242   0.000088  -1.774825  -0.002457   1.907539
   38  H  2  S   -0.657573   0.000060  -0.161464   0.000321  -0.259655
   39  H  2  X    0.044999   0.025310  -0.014246  -0.101251  -0.066700
   40  H  2  Y   -0.071750   0.023009   0.005862  -0.092097   0.070961
   41  H  2  Z    0.067050   0.007608   0.029731  -0.030491   0.007056
   42  H  2  X   -0.023537  -0.242307  -0.371784   0.137364   0.777067
   43  H  2  Y    0.107818  -0.220114   0.629535   0.127021  -1.074326
   44  H  2  Z   -0.247455  -0.072852  -0.664383   0.040775   0.660577
   45  H  2 XX   -0.002817  -0.030113  -0.001715  -0.296655  -0.064257
   46  H  2 YY    0.036525   0.031816  -0.019818   0.158964  -0.049987
   47  H  2 ZZ   -0.033709  -0.001703   0.021533   0.137692   0.114243
   48  H  2 XY   -0.058393   0.004457   0.005566  -0.054222  -0.222035
   49  H  2 XZ    0.050935  -0.008507  -0.035142   0.213286  -0.113253
   50  H  2 YZ   -0.056764   0.003124   0.027989   0.270702  -0.020638
   51  H  3  S    0.305084  -0.000034  -0.656740   0.001074  -0.834857
   52  H  3  S    0.068164   0.000069  -1.774919   0.002463  -1.907926
   53  H  3  S    0.657658  -0.000064  -0.161573  -0.000337   0.259649
   54  H  3  X   -0.022598   0.025312  -0.019510  -0.101403   0.059043
   55  H  3  Y   -0.009958   0.022998   0.025027  -0.091937  -0.044227
   56  H  3  Z    0.105243   0.007609  -0.010665  -0.030386  -0.063960
   57  H  3  X   -0.039715  -0.242363  -0.159517   0.139022  -0.509987
   58  H  3  Y    0.122511  -0.220122  -0.143619   0.125482   0.102816
   59  H  3  Z   -0.238268  -0.072891   0.964229   0.039812   1.387091
   60  H  3 XX    0.029533  -0.024638   0.011472  -0.367470   0.051799
   61  H  3 YY    0.052497   0.013625   0.024076   0.392543   0.011986
   62  H  3 ZZ   -0.082030   0.011013  -0.035548  -0.025074  -0.063784
   63  H  3 XY   -0.011882  -0.004244  -0.029141   0.056706   0.252655
   64  H  3 XZ    0.058762   0.016870   0.018942  -0.112172   0.065750
   65  H  3 YZ   -0.019773   0.021814  -0.009762   0.031104   0.054337

                     31         32         33         34         35
                    3.5948     3.6529     3.8039     3.8788     3.9257
                     A          A          A          A          A   
    1  O  1  S   -0.027300   0.000008   0.000009  -0.000019  -0.000017
    2  O  1  S   -0.458360   0.000131   0.000209  -0.000370  -0.000351
    3  O  1  S    0.981516  -0.000293  -0.000338   0.000852   0.000986
    4  O  1  S    0.118427  -0.000073  -0.000072   0.000042  -0.000083
    5  O  1  X    0.016661   0.000015  -0.021847  -0.001118  -0.038068
    6  O  1  Y   -0.015218  -0.000033   0.079484  -0.001046   0.138695
    7  O  1  Z   -0.009464   0.000100  -0.167370  -0.000363  -0.292199
    8  O  1  X   -0.127279  -0.000049   0.093287  -0.008005   0.168792
    9  O  1  Y    0.116282   0.000087  -0.339415  -0.006994  -0.615383
   10  O  1  Z    0.072201  -0.000424   0.714685  -0.002237   1.296840
   11  O  1  X   -0.124288  -0.000002   0.058945  -0.181953  -0.012095
   12  O  1  Y    0.113642  -0.000021  -0.214567  -0.165134   0.043978
   13  O  1  Z    0.070217  -0.000107   0.451894  -0.054646  -0.092549
   14  O  1 XX    0.026316  -0.013605  -0.003536   0.068400  -0.027933
   15  O  1 YY    0.012362   0.045013  -0.011763  -0.056797  -0.093077
   16  O  1 ZZ   -0.038678  -0.031408   0.015299  -0.011603   0.121010
   17  O  1 XY   -0.005960   0.021491   0.009305  -0.000266   0.073517
   18  O  1 XZ   -0.015260  -0.062671  -0.014501  -0.010413  -0.114695
   19  O  1 YZ    0.038322  -0.046166   0.010114  -0.031095   0.080063
   20  O  1 XX   -0.008182  -0.004988  -0.055390  -0.038283  -0.053416
   21  O  1 YY   -0.001573   0.016714  -0.184480   0.031762  -0.177924
   22  O  1 ZZ    0.009755  -0.011726   0.239870   0.006521   0.231340
   23  O  1 XY    0.164277   0.007886   0.145760   0.000117   0.140461
   24  O  1 XZ    0.084587  -0.023138  -0.227256   0.005769  -0.219249
   25  O  1 YZ   -0.042221  -0.017136   0.158584   0.017336   0.153000
   26  O  1 XXX   0.218647   0.118848  -0.086130  -0.148519   0.008333
   27  O  1 YYY  -0.211709   0.359531   0.223970  -0.214457  -0.021904
   28  O  1 ZZZ  -0.132719  -0.154772   0.204728  -0.186541   0.003228
   29  O  1 XXY   0.329897  -0.194027   0.167974   0.510272  -0.047194
   30  O  1 XXZ   0.154947   0.393879  -0.265408   0.193468   0.011514
   31  O  1 YYX  -0.279952  -0.042752  -0.128456   0.412401   0.124127
   32  O  1 YYZ   0.023114  -0.186231  -0.009263   0.056803  -0.015844
   33  O  1 ZZX  -0.013394  -0.116699   0.244012  -0.213142  -0.135306
   34  O  1 ZZY  -0.045860  -0.288335  -0.468461  -0.222548   0.076581
   35  O  1 XYZ  -0.299045   0.003799   0.027290   0.267164  -0.104676
   36  H  2  S    0.049573  -0.000075   0.308477  -0.000076   0.557907
   37  H  2  S   -0.490752  -0.000184   0.617006  -0.000227   0.677587
   38  H  2  S    0.092626   0.000019   0.082187   0.000036  -0.037920
   39  H  2  X   -0.091214   0.337550  -0.243411  -0.367441  -0.036803
   40  H  2  Y    0.079956   0.306398   0.168048  -0.333605   0.209665
   41  H  2  Z    0.062315   0.101427   0.302329  -0.110408  -0.510811
   42  H  2  X   -0.036397  -0.279384   0.450803   0.326480   0.360549
   43  H  2  Y    0.097169  -0.253442  -0.423550   0.296604  -0.631254
   44  H  2  Z   -0.172800  -0.083958  -0.220476   0.098042   0.707189
   45  H  2 XX   -0.156808  -0.126266  -0.005203   0.008968   0.099891
   46  H  2 YY   -0.172534   0.017538   0.048065   0.027783   0.173690
   47  H  2 ZZ    0.329342   0.108728  -0.042861  -0.036751  -0.273582
   48  H  2 XY   -0.242946  -0.055029   0.181959   0.022386   0.091533
   49  H  2 XZ   -0.238567   0.187079   0.189111  -0.068959   0.251941
   50  H  2 YZ   -0.019869   0.193053  -0.120295  -0.058705  -0.082108
   51  H  3  S    0.049282   0.000101  -0.308470  -0.000070  -0.557991
   52  H  3  S   -0.491291   0.000465  -0.616694  -0.000327  -0.678241
   53  H  3  S    0.092657  -0.000058  -0.082232   0.000051   0.038087
   54  H  3  X   -0.093927  -0.337634   0.283570  -0.367445  -0.092436
   55  H  3  Y    0.089368  -0.306500  -0.314017  -0.333586   0.260600
   56  H  3  Z    0.042141  -0.101513   0.005000  -0.110503  -0.479497
   57  H  3  X    0.010483   0.279518  -0.442663   0.326538  -0.139441
   58  H  3  Y   -0.073613   0.253639   0.393698   0.296522  -0.174172
   59  H  3  Z    0.187724   0.083758   0.283502   0.098404   0.989693
   60  H  3 XX   -0.091215   0.196879   0.038213   0.037412  -0.013373
   61  H  3 YY    0.045757  -0.250800   0.062118  -0.066186   0.114232
   62  H  3 ZZ    0.045458   0.053922  -0.100331   0.028774  -0.100859
   63  H  3 XY   -0.415401  -0.056226  -0.268910  -0.022479  -0.318812
   64  H  3 XZ    0.030411   0.137720  -0.053188   0.061783   0.102734
   65  H  3 YZ   -0.207599   0.046095   0.025418   0.037565  -0.165347

                     36         37         38         39         40
                    3.9514     4.1354     4.1633     4.3801     4.4723
                     A          A          A          A          A   
    1  O  1  S   -0.104340   0.000029  -0.070922  -0.019387  -0.000008
    2  O  1  S   -2.117045   0.000389  -0.968725  -0.763941  -0.000495
    3  O  1  S    4.691739  -0.001030   2.494005   2.676272   0.001613
    4  O  1  S   -0.068117   0.000051  -0.242767   0.991945   0.000614
    5  O  1  X    0.125211  -0.000025   0.065354   0.110157  -0.006001
    6  O  1  Y   -0.114576   0.000010  -0.059798  -0.100748   0.022084
    7  O  1  Z   -0.070535   0.000029  -0.036831  -0.062159  -0.046754
    8  O  1  X   -0.856977   0.000099  -0.336841  -0.727673  -0.042264
    9  O  1  Y    0.783749  -0.000132   0.307991   0.665313   0.152861
   10  O  1  Z    0.483627  -0.000179   0.190305   0.411226  -0.321003
   11  O  1  X   -0.182193  -0.000033   0.100948  -0.174678   0.019607
   12  O  1  Y    0.166598   0.000032  -0.092319   0.159762  -0.071763
   13  O  1  Z    0.102984   0.000006  -0.056984   0.098527   0.151470
   14  O  1 XX   -0.015034  -0.000503   0.009160  -0.107415  -0.029735
   15  O  1 YY   -0.007460   0.001634   0.004779  -0.052861  -0.098857
   16  O  1 ZZ    0.022493  -0.001130  -0.013939   0.160276   0.128593
   17  O  1 XY   -0.028435   0.000762   0.030877  -0.146016   0.077974
   18  O  1 XZ   -0.006927  -0.002262   0.010911  -0.021649  -0.121801
   19  O  1 YZ   -0.015951  -0.001667   0.007185  -0.124574   0.084915
   20  O  1 XX   -0.108260   0.022437  -0.151199   0.010643   0.093582
   21  O  1 YY   -0.054916  -0.073842  -0.070907   0.003481   0.311686
   22  O  1 ZZ    0.163176   0.051405   0.222105  -0.014124  -0.405267
   23  O  1 XY   -0.257085  -0.035272   0.043723  -0.098533  -0.246249
   24  O  1 XZ   -0.076033   0.102767   0.092245  -0.053816   0.384098
   25  O  1 YZ   -0.104924   0.075760  -0.221931   0.033753  -0.268023
   26  O  1 XXX  -0.343432   0.070875  -0.257360   0.279762  -0.046074
   27  O  1 YYY   0.111599   0.214048   0.190890  -0.154882   0.120378
   28  O  1 ZZZ  -0.406504  -0.092180  -0.006494   0.153079   0.177674
   29  O  1 XXY  -0.095043  -0.115450  -0.276470   0.199801   0.002177
   30  O  1 XXZ   0.125823   0.234645  -0.084564   0.004400  -0.184629
   31  O  1 YYX   0.160637  -0.025626   0.255765  -0.211813   0.251710
   32  O  1 YYZ   0.419560  -0.110973   0.093277  -0.209776  -0.053746
   33  O  1 ZZX   0.300126  -0.069463   0.089520  -0.163527  -0.189895
   34  O  1 ZZY  -0.054682  -0.171726   0.020365   0.007994  -0.163681
   35  O  1 XYZ  -0.189405   0.002173   0.177682  -0.036271  -0.278910
   36  H  2  S   -0.256715   0.000089  -0.213041  -0.423623  -0.247184
   37  H  2  S   -1.470345   0.000196  -0.635825  -1.167769  -0.203558
   38  H  2  S    0.282984  -0.000046   0.147998   0.005889   0.198532
   39  H  2  X   -0.065095   0.239374   0.289696   0.399336  -0.435933
   40  H  2  Y   -0.026384   0.217478  -0.130090  -0.510688   0.442079
   41  H  2  Z    0.296546   0.072229  -0.570034   0.214073   0.114777
   42  H  2  X   -0.398683  -0.174792  -0.515981  -0.627263   0.230584
   43  H  2  Y    0.666000  -0.159049   0.510772   0.895360  -0.151580
   44  H  2  Z   -0.685486  -0.052700   0.173225  -0.617651  -0.309008
   45  H  2 XX    0.091190   0.342331  -0.175582   0.050212   0.016460
   46  H  2 YY    0.065570  -0.121586  -0.190866  -0.059742  -0.056063
   47  H  2 ZZ   -0.156760  -0.220745   0.366448   0.009531   0.039603
   48  H  2 XY    0.049245   0.102039   0.040455   0.177105  -0.311490
   49  H  2 XZ    0.025768  -0.364154  -0.117511  -0.110643  -0.281160
   50  H  2 YZ    0.083862  -0.407865  -0.077734   0.179618   0.179152
   51  H  3  S   -0.256731   0.000111  -0.213230  -0.424090   0.246863
   52  H  3  S   -1.470819   0.000371  -0.636130  -1.168721   0.202015
   53  H  3  S    0.283085  -0.000071   0.148058   0.006204  -0.198496
   54  H  3  X   -0.128061  -0.239629   0.388117   0.292236   0.404334
   55  H  3  Y    0.203098  -0.217233  -0.489710  -0.121716  -0.326068
   56  H  3  Z   -0.187039  -0.072061   0.187363  -0.604386  -0.360039
   57  H  3  X   -0.177774   0.175224  -0.487253  -0.391249  -0.274455
   58  H  3  Y   -0.138960   0.158740   0.406580   0.035807   0.309787
   59  H  3  Z    1.010586   0.052385   0.393233   1.193112  -0.022793
   60  H  3 XX    0.076258  -0.473361  -0.101129   0.109739  -0.057226
   61  H  3 YY    0.015584   0.555596   0.058612   0.138401  -0.080185
   62  H  3 ZZ   -0.091842  -0.082234   0.042517  -0.248140   0.137411
   63  H  3 XY    0.088937   0.105224  -0.156252   0.020217   0.419201
   64  H  3 XZ   -0.035982  -0.240147   0.189664   0.133354   0.113337
   65  H  3 YZ    0.127047  -0.036994  -0.291984   0.009335  -0.061855

                     41         42         43         44         45
                    4.5579     4.5932     4.7345     4.9158     4.9526
                     A          A          A          A          A   
    1  O  1  S   -0.000002   0.000001  -0.029364   0.000032  -0.000003
    2  O  1  S    0.000039  -0.000031  -0.110396   0.000479  -0.000016
    3  O  1  S    0.000007   0.000015   0.395002  -0.000497   0.000241
    4  O  1  S    0.000094  -0.000020  -0.378836  -0.000013   0.000138
    5  O  1  X   -0.035098  -0.000031  -0.039226   0.048454  -0.012995
    6  O  1  Y   -0.031847  -0.000054   0.035868  -0.176727   0.047272
    7  O  1  Z   -0.010558   0.000014   0.022162   0.372516  -0.099530
    8  O  1  X   -0.351440  -0.000150   0.270742   0.301036   0.003227
    9  O  1  Y   -0.319039  -0.000135  -0.247471  -1.096401  -0.012025
   10  O  1  Z   -0.105689  -0.000010  -0.153073   2.309531   0.025593
   11  O  1  X   -0.129089  -0.000021   0.115748   0.065841  -0.015728
   12  O  1  Y   -0.117171  -0.000029  -0.105820  -0.239782   0.057219
   13  O  1  Z   -0.038802   0.000016  -0.065388   0.505105  -0.120465
   14  O  1 XX   -0.041233   0.015274   0.070200   0.030353   0.000054
   15  O  1 YY    0.034242  -0.050610   0.032618   0.101119   0.000223
   16  O  1 ZZ    0.006991   0.035335  -0.102818  -0.131472  -0.000277
   17  O  1 XY    0.000154  -0.024162  -0.038959  -0.079862  -0.000178
   18  O  1 XZ    0.006271   0.070484  -0.052011   0.124605   0.000287
   19  O  1 YZ    0.018747   0.051908   0.106561  -0.086957  -0.000218
   20  O  1 XX    0.280481  -0.092238  -0.379478  -0.177312  -0.032467
   21  O  1 YY   -0.232926   0.305459  -0.178225  -0.590774  -0.108228
   22  O  1 ZZ   -0.047555  -0.213220   0.557703   0.768087   0.140694
   23  O  1 XY   -0.001097   0.145872   0.073923   0.466563   0.085418
   24  O  1 XZ   -0.042648  -0.425388   0.213905  -0.727948  -0.133377
   25  O  1 YZ   -0.127514  -0.313226  -0.550493   0.508106   0.093126
   26  O  1 XXX   0.107704  -0.042394   0.220241  -0.030439  -0.035427
   27  O  1 YYY   0.109914  -0.128176  -0.205865   0.079741   0.092443
   28  O  1 ZZZ   0.059995   0.055259  -0.112890   0.129545   0.146573
   29  O  1 XXY  -0.232472   0.069103   0.318053  -0.014038  -0.011768
   30  O  1 XXZ  -0.108803  -0.140604   0.143520  -0.129679  -0.148075
   31  O  1 YYX  -0.196657   0.015295  -0.272561   0.222967   0.241898
   32  O  1 YYZ   0.028311   0.066466   0.007938  -0.044124  -0.048574
   33  O  1 ZZX   0.052157   0.041582  -0.022923  -0.182128  -0.194369
   34  O  1 ZZY   0.085008   0.102863  -0.041857  -0.092946  -0.112258
   35  O  1 XYZ  -0.104912  -0.001399  -0.278997  -0.236213  -0.258557
   36  H  2  S   -0.000065   0.000063  -0.118159   0.976383   0.142972
   37  H  2  S   -0.000055   0.000021   0.119418   2.260345   0.168368
   38  H  2  S   -0.000007   0.000017   0.033483  -0.251577  -0.029478
   39  H  2  X   -0.465438   0.381274  -0.005598   0.097551   0.203765
   40  H  2  Y   -0.422594   0.346209   0.085488  -0.145031  -0.076853
   41  H  2  Z   -0.139955   0.114655  -0.239225   0.113236  -0.445754
   42  H  2  X    0.468944  -0.440633  -0.198266   0.840931  -0.182812
   43  H  2  Y    0.425848  -0.400161   0.079955  -1.197158  -0.022404
   44  H  2  Z    0.140994  -0.132499   0.417639   0.818522   0.675801
   45  H  2 XX    0.386144  -0.491453  -0.092266  -0.125664  -0.341194
   46  H  2 YY   -0.459769   0.564034  -0.020391   0.219169  -0.305536
   47  H  2 ZZ    0.073625  -0.072580   0.112657  -0.093504   0.646730
   48  H  2 XY   -0.089880   0.100942   0.567920  -0.662447   0.082120
   49  H  2 XZ    0.208371  -0.224751   0.353083   0.316450  -0.094558
   50  H  2 YZ    0.040454  -0.018757  -0.261372  -0.528553  -0.258348
   51  H  3  S   -0.000008  -0.000010  -0.117922  -0.976692  -0.143060
   52  H  3  S   -0.000026  -0.000030   0.119977  -2.259949  -0.168669
   53  H  3  S   -0.000003  -0.000012   0.033426   0.251518   0.029489
   54  H  3  X   -0.465136  -0.381374   0.053169  -0.056790  -0.283971
   55  H  3  Y   -0.422321  -0.346272  -0.128893  -0.003857   0.369265
   56  H  3  Z   -0.139844  -0.114708   0.212334   0.200662  -0.170485
   57  H  3  X    0.468767   0.440899  -0.272346  -0.526859   0.321774
   58  H  3  Y    0.425625   0.400296   0.350464   0.053674  -0.484001
   59  H  3  Z    0.140944   0.132622  -0.152412   1.590075   0.391206
   60  H  3 XX    0.273716   0.365706  -0.102627   0.324754   0.240896
   61  H  3 YY   -0.088180  -0.147513  -0.055039   0.443656  -0.028834
   62  H  3 ZZ   -0.185536  -0.218193   0.157665  -0.768410  -0.212061
   63  H  3 XY    0.087431   0.097870   0.595207   0.138928   0.181987
   64  H  3 XZ   -0.308753  -0.355417   0.310596   0.500446  -0.317441
   65  H  3 YZ   -0.340346  -0.408504  -0.231780  -0.041535   0.545991

                     46         47         48         49         50
                    5.0501     5.1026     6.0380     6.1098     6.1281
                     A          A          A          A          A   
    1  O  1  S   -0.000028  -0.151021   0.000011   0.000042  -0.070483
    2  O  1  S   -0.000026  -0.039036   0.000079   0.000292  -0.640356
    3  O  1  S    0.000656   3.545012  -0.000173  -0.000852   1.026910
    4  O  1  S    0.000305   1.817102   0.000023  -0.000184  -0.497054
    5  O  1  X    0.001969  -0.259980  -0.099131  -0.038406   0.134959
    6  O  1  Y    0.001882   0.237715  -0.089965   0.139884  -0.123395
    7  O  1  Z    0.000605   0.146841  -0.029816  -0.294612  -0.076346
    8  O  1  X    0.075946  -1.214136   0.967932   0.220688  -0.929547
    9  O  1  Y    0.069423   1.110408   0.878456  -0.802641   0.850251
   10  O  1  Z    0.022900   0.685034   0.291051   1.689161   0.524985
   11  O  1  X    0.002018  -0.368849   0.003668  -0.017534   0.083293
   12  O  1  Y    0.001966   0.337321   0.003335   0.064077  -0.076157
   13  O  1  Z    0.000632   0.208147   0.001093  -0.135194  -0.047088
   14  O  1 XX   -0.078217   0.107177   0.208589  -0.004759  -0.099475
   15  O  1 YY    0.064967   0.053249  -0.173002  -0.016162  -0.049717
   16  O  1 ZZ    0.013250  -0.160426  -0.035587   0.020921   0.149192
   17  O  1 XY    0.000336   0.181320  -0.000657   0.012636  -0.188144
   18  O  1 XZ    0.011907   0.039192  -0.032084  -0.020161  -0.046116
   19  O  1 YZ    0.035589   0.117567  -0.095060   0.014244  -0.105403
   20  O  1 XX   -0.201102  -0.318209  -0.960336  -0.077390   0.492909
   21  O  1 YY    0.166951  -0.159085   0.797131  -0.257382   0.223596
   22  O  1 ZZ    0.034152   0.477294   0.163205   0.334772  -0.716505
   23  O  1 XY    0.000645  -0.602697   0.003684   0.203678  -0.670076
   24  O  1 XZ    0.030605  -0.147985   0.146508  -0.316504  -0.560513
   25  O  1 YZ    0.091294  -0.337187   0.436627   0.220596   0.822555
   26  O  1 XXX   0.587459   0.175154  -0.065084  -0.203737   0.336049
   27  O  1 YYY   0.254825  -0.056310   0.208102   0.529583  -0.291188
   28  O  1 ZZZ  -0.241151   0.209209   0.416226   0.553032  -0.108863
   29  O  1 XXY  -0.228696   0.047371  -0.686939   0.306955   0.441894
   30  O  1 XXZ  -0.355821  -0.065209  -0.123701  -0.670465   0.180911
   31  O  1 YYX  -0.298696  -0.081236  -0.497182   0.024581  -0.387411
   32  O  1 YYZ   0.679359  -0.215475  -0.434725  -0.071505  -0.034856
   33  O  1 ZZX  -0.489463  -0.153757   0.584502   0.248761  -0.063445
   34  O  1 ZZY  -0.113187   0.028177   0.407741  -1.017465  -0.051225
   35  O  1 XYZ   0.099045   0.098396  -0.470868  -0.235534  -0.358159
   36  H  2  S   -0.000199  -0.834954   0.000142   0.868624  -0.348728
   37  H  2  S   -0.000528  -2.214064   0.000038   0.132378   0.090898
   38  H  2  S    0.000046   0.178980  -0.000031  -0.178978   0.082400
   39  H  2  X    0.035860  -0.190633  -0.357089   0.484033   0.065997
   40  H  2  Y    0.032646   0.260698  -0.324321  -0.526319   0.143483
   41  H  2  Z    0.010767  -0.153176  -0.107291  -0.020266  -0.653274
   42  H  2  X   -0.052452  -0.660590  -0.418851   0.154367   0.314913
   43  H  2  Y   -0.047224   0.983942  -0.380256  -0.056272  -0.237863
   44  H  2  Z   -0.015915  -0.774269  -0.125900  -0.343238  -0.329536
   45  H  2 XX    0.298100   0.173774  -0.583997   0.285358   0.411394
   46  H  2 YY   -0.080290  -0.206941   0.779650   0.144621   0.364932
   47  H  2 ZZ   -0.217810   0.033167  -0.195653  -0.429979  -0.776325
   48  H  2 XY    0.105354   0.506706   0.189681  -0.353370  -0.367209
   49  H  2 XZ   -0.366636  -0.432351  -0.477226  -0.277151  -0.017746
   50  H  2 YZ   -0.394977   0.639406  -0.192184   0.444998   0.361427
   51  H  3  S   -0.000096  -0.835182  -0.000020  -0.868238  -0.349055
   52  H  3  S   -0.000255  -2.213666   0.000011  -0.131640   0.091310
   53  H  3  S    0.000022   0.178924   0.000003   0.178848   0.082415
   54  H  3  X    0.035894  -0.127401  -0.357282  -0.422756   0.215389
   55  H  3  Y    0.032610   0.030079  -0.324237   0.303177  -0.401035
   56  H  3  Z    0.010857   0.332893  -0.107432   0.490743   0.494411
   57  H  3  X   -0.052323  -0.382022  -0.419040  -0.216808   0.351782
   58  H  3  Y   -0.047476  -0.030359  -0.380307   0.283380  -0.371889
   59  H  3  Z   -0.015584   1.362268  -0.125995  -0.134348  -0.047219
   60  H  3 XX    0.433204   0.378393  -0.345985  -0.275330   0.290018
   61  H  3 YY   -0.526872   0.475010  -0.007560  -0.110570  -0.039123
   62  H  3 ZZ    0.093668  -0.853403   0.353545   0.385900  -0.250896
   63  H  3 XY   -0.108048  -0.031882  -0.186085   0.326367  -0.048127
   64  H  3 XZ    0.255287   0.407911   0.618777   0.319617  -0.514914
   65  H  3 YZ    0.062728   0.052753   0.614636  -0.475063   0.708391

                     51         52         53         54         55
                    6.2599     6.3034     6.3855     6.4317     6.9169
                     A          A          A          A          A   
    1  O  1  S   -0.000006  -0.000001  -0.000002  -0.015981   0.045253
    2  O  1  S   -0.000021  -0.000021  -0.000025  -0.189456  -0.307477
    3  O  1  S    0.000097   0.000028   0.000047   0.272528  -0.551078
    4  O  1  S   -0.000047  -0.000046   0.000071   0.543962   0.941885
    5  O  1  X    0.000029  -0.008585   0.000004   0.080568   0.216020
    6  O  1  Y    0.000032  -0.007799  -0.000013  -0.073633  -0.197561
    7  O  1  Z    0.000008  -0.002596  -0.000003  -0.045613  -0.121867
    8  O  1  X   -0.000145  -0.035161   0.000457  -0.350814  -0.139418
    9  O  1  Y   -0.000084  -0.031894   0.000536   0.320550   0.127730
   10  O  1  Z    0.000017  -0.010524   0.000139   0.198815   0.077930
   11  O  1  X    0.000149   0.092716  -0.000144  -0.214646  -0.191084
   12  O  1  Y    0.000104   0.084156  -0.000084   0.196333   0.174735
   13  O  1  Z    0.000039   0.027863  -0.000017   0.121060   0.107885
   14  O  1 XX   -0.117366   1.013290   0.132786  -0.270572   0.511663
   15  O  1 YY    0.391739  -0.842148  -0.442144  -0.115351   0.251146
   16  O  1 ZZ   -0.274373  -0.171142   0.309358   0.385923  -0.762809
   17  O  1 XY    0.187489  -0.004425  -0.211439   0.876134   0.644169
   18  O  1 XZ   -0.547238  -0.152729   0.617084   0.557761   0.077978
   19  O  1 YZ   -0.403390  -0.459332   0.454675  -0.546669   0.602895
   20  O  1 XX    0.229271  -0.564632   0.025659   0.264941  -0.124363
   21  O  1 YY   -0.760130   0.469586  -0.084152   0.114122  -0.065502
   22  O  1 ZZ    0.530860   0.095046   0.058494  -0.379062   0.189865
   23  O  1 XY   -0.363161   0.002643  -0.040197  -0.764474  -0.484132
   24  O  1 XZ    1.059179   0.084498   0.116836  -0.500544  -0.179717
   25  O  1 YZ    0.780168   0.255522   0.086062   0.518041  -0.085656
   26  O  1 XXX  -0.251215   0.078177  -0.159569   0.105797   0.008180
   27  O  1 YYY  -0.760246   0.022314  -0.482312  -0.092630  -0.058261
   28  O  1 ZZZ   0.327229  -0.052118   0.207902  -0.036947  -0.144969
   29  O  1 XXY   0.410322   0.005690   0.259981   0.141117   0.108776
   30  O  1 XXZ  -0.833077  -0.038359  -0.528513   0.058492   0.089821
   31  O  1 YYX   0.090652  -0.012679   0.057280  -0.123120  -0.074196
   32  O  1 YYZ   0.394053   0.108283   0.249582  -0.008922   0.104675
   33  O  1 ZZX   0.246388  -0.092207   0.156805  -0.018822   0.063221
   34  O  1 ZZY   0.609655  -0.035627   0.387109  -0.016840  -0.030611
   35  O  1 XYZ  -0.007861   0.036591  -0.005322  -0.115874  -0.161038
   36  H  2  S   -0.000045   0.000017  -0.000037  -0.112664   0.070334
   37  H  2  S    0.000052   0.000014  -0.000065  -0.374244  -0.255272
   38  H  2  S    0.000001   0.000004   0.000010   0.010596  -0.079559
   39  H  2  X    0.367654   0.073482   0.269140   0.011901   0.249883
   40  H  2  Y    0.333832   0.066698   0.244383   0.020071  -0.301057
   41  H  2  Z    0.110499   0.022068   0.080900  -0.100204   0.078033
   42  H  2  X    0.363037  -0.114255   0.089743   0.140494   0.040683
   43  H  2  Y    0.329591  -0.103749   0.081471  -0.044228  -0.017120
   44  H  2  Z    0.109167  -0.034358   0.026938  -0.333642  -0.083554
   45  H  2 XX    0.499402   0.162166   0.379074   0.061688   0.083289
   46  H  2 YY   -0.621670  -0.153381  -0.504411   0.076665   0.219232
   47  H  2 ZZ    0.122268  -0.008785   0.125337  -0.138353  -0.302522
   48  H  2 XY   -0.133560  -0.012560  -0.122042  -0.024544  -0.316076
   49  H  2 XZ    0.321514   0.011335   0.306522   0.056011   0.179055
   50  H  2 YZ    0.094384  -0.044560   0.122123   0.012972  -0.126883
   51  H  3  S   -0.000018  -0.000021   0.000013  -0.113655   0.071617
   52  H  3  S   -0.000046   0.000024  -0.000046  -0.374349  -0.255189
   53  H  3  S    0.000013   0.000003  -0.000004   0.010762  -0.079676
   54  H  3  X   -0.367469   0.073911  -0.269698   0.034317   0.196854
   55  H  3  Y   -0.333635   0.067085  -0.244901  -0.062476  -0.107262
   56  H  3  Z   -0.110472   0.022242  -0.081100   0.074539  -0.330843
   57  H  3  X   -0.363303  -0.113406  -0.089817   0.202098   0.055428
   58  H  3  Y   -0.329835  -0.102968  -0.081618  -0.269045  -0.070757
   59  H  3  Z   -0.109194  -0.034112  -0.026993   0.140121   0.029313
   60  H  3 XX   -0.331672   0.147453  -0.226566   0.028469  -0.044053
   61  H  3 YY    0.068512  -0.103505  -0.001873  -0.033490  -0.204952
   62  H  3 ZZ    0.263161  -0.043948   0.228440   0.005020   0.249005
   63  H  3 XY   -0.130306   0.011472  -0.119959   0.062575   0.019072
   64  H  3 XZ    0.447787  -0.058811   0.399313  -0.079436  -0.343613
   65  H  3 YZ    0.471946  -0.096382   0.397953   0.107335   0.237923

                     56         57         58
                    7.0114     7.4665     7.7184
                     A          A          A   
    1  O  1  S    0.000015   0.000149  -0.302558
    2  O  1  S    0.000095   0.000997  -2.407806
    3  O  1  S   -0.000295  -0.002832   5.674907
    4  O  1  S    0.000016   0.000053   0.111443
    5  O  1  X   -0.009984  -0.069546   0.184398
    6  O  1  Y    0.036363   0.253285  -0.168518
    7  O  1  Z   -0.076602  -0.533553  -0.104420
    8  O  1  X    0.219762   0.159560  -1.377751
    9  O  1  Y   -0.800873  -0.579513   1.259525
   10  O  1  Z    1.687535   1.219325   0.778871
   11  O  1  X   -0.021676   0.028853  -0.033851
   12  O  1  Y    0.078994  -0.105118   0.030935
   13  O  1  Z   -0.166445   0.221448   0.019162
   14  O  1 XX   -0.071087   0.167300   0.114303
   15  O  1 YY   -0.237142   0.557270   0.055058
   16  O  1 ZZ    0.308229  -0.724570  -0.169361
   17  O  1 XY    0.187333  -0.440056   0.054988
   18  O  1 XZ   -0.292348   0.686659  -0.025863
   19  O  1 YZ    0.204156  -0.479194   0.150921
   20  O  1 XX   -0.210713  -0.259256  -0.943852
   21  O  1 YY   -0.702304  -0.865054  -0.454916
   22  O  1 ZZ    0.913017   1.124310   1.398767
   23  O  1 XY    0.554590   0.683616  -0.566582
   24  O  1 XZ   -0.865543  -1.066345   0.161105
   25  O  1 YZ    0.604218   0.744786  -1.227553
   26  O  1 XXX   0.094613   0.039177   0.652533
   27  O  1 YYY  -0.245379  -0.102261  -0.083123
   28  O  1 ZZZ  -0.098825  -0.008444   1.130568
   29  O  1 XXY  -0.348201  -0.188772  -0.066189
   30  O  1 XXZ   0.212962   0.068356  -0.454128
   31  O  1 YYX   0.737261   0.465925  -0.142651
   32  O  1 YYZ  -0.080374  -0.057027  -1.062688
   33  O  1 ZZX  -0.864197  -0.518486  -0.732813
   34  O  1 ZZY   0.677411   0.325969   0.177711
   35  O  1 XYZ  -0.575655  -0.385313   0.743491
   36  H  2  S    1.491393   1.205244  -2.043166
   37  H  2  S    0.398644   0.148485  -0.973357
   38  H  2  S   -0.239297   0.089131   0.183802
   39  H  2  X    0.303772   0.024914  -0.676779
   40  H  2  Y   -0.607752  -0.143935   0.821001
   41  H  2  Z    0.824962   0.351790  -0.228286
   42  H  2  X    0.051819   0.015235  -0.428223
   43  H  2  Y   -0.140534  -0.030182   0.516672
   44  H  2  Z    0.252075   0.040460  -0.136006
   45  H  2 XX   -0.213110   0.002792  -0.176092
   46  H  2 YY   -0.071837  -0.132001  -0.139890
   47  H  2 ZZ    0.284946   0.129209   0.315982
   48  H  2 XY    0.174855   0.416286   0.170599
   49  H  2 XZ    0.239272  -0.078572   0.046614
   50  H  2 YZ   -0.377575   0.155535  -0.183564
   51  H  3  S   -1.491522  -1.203231  -2.045513
   52  H  3  S   -0.398368  -0.147493  -0.973514
   53  H  3  S    0.239243  -0.089358   0.183779
   54  H  3  X   -0.061595   0.064646  -0.528675
   55  H  3  Y   -0.273668  -0.179989   0.281223
   56  H  3  Z    1.031202   0.328490   0.909129
   57  H  3  X    0.016664  -0.002944  -0.336573
   58  H  3  Y   -0.108396  -0.013425   0.182728
   59  H  3  Z    0.271844   0.050334   0.567645
   60  H  3 XX    0.231395  -0.098935  -0.135491
   61  H  3 YY    0.132461  -0.188615  -0.004299
   62  H  3 ZZ   -0.363856   0.287550   0.139790
   63  H  3 XY   -0.222929  -0.163234   0.063048
   64  H  3 XZ   -0.164749  -0.316761   0.213624
   65  H  3 YZ    0.325673   0.120477  -0.300329
 ...... END OF RHF CALCULATION ......
 CPU     0: STEP CPU TIME=     0.81 TOTAL CPU TIME=          1.8 (      0.0 MIN)
 TOTAL WALL CLOCK TIME=          2.3 SECONDS, CPU UTILIZATION IS    80.64%

     ---------------------------------------------------------------------
     PROPERTIES FOR THE WB97X-D  DFT FUNCTIONAL (RHF  TYPE) DENSITY MATRIX
     ---------------------------------------------------------------------

          ---------------------------------------
          MULLIKEN AND LOWDIN POPULATION ANALYSES
          ---------------------------------------

     ATOMIC MULLIKEN POPULATION IN EACH MOLECULAR ORBITAL

                      1          2          3          4          5

                  2.000000   2.000000   2.000000   2.000000   2.000000

    1             2.000236   1.561325   1.265037   1.750563   1.939571
    2            -0.000118   0.219222   0.367502   0.124712   0.030189
    3            -0.000118   0.219453   0.367461   0.124725   0.030240

               ----- POPULATIONS IN EACH AO -----
                             MULLIKEN      LOWDIN
              1  O  1  S      1.99802     1.95577
              2  O  1  S      0.61896     0.30999
              3  O  1  S      0.79168     0.29943
              4  O  1  S      0.32204     0.19428
              5  O  1  X      0.73260     0.58155
              6  O  1  Y      0.70633     0.55366
              7  O  1  Z      0.60337     0.45029
              8  O  1  X      0.70081     0.41823
              9  O  1  Y      0.67272     0.40148
             10  O  1  Z      0.56245     0.33890
             11  O  1  X      0.32850     0.29171
             12  O  1  Y      0.29600     0.27162
             13  O  1  Z      0.17093     0.19508
             14  O  1 XX      0.00073     0.12029
             15  O  1 YY      0.00024     0.12015
             16  O  1 ZZ      0.00064     0.12073
             17  O  1 XY      0.00065     0.00033
             18  O  1 XZ      0.00036     0.00035
             19  O  1 YZ      0.00000     0.00017
             20  O  1 XX      0.00187     0.10438
             21  O  1 YY      0.00137     0.10578
             22  O  1 ZZ      0.00279     0.10957
             23  O  1 XY      0.00231     0.00390
             24  O  1 XZ      0.00087     0.00555
             25  O  1 YZ      0.00000     0.00379
             26  O  1 XXX     0.00011     0.20160
             27  O  1 YYY     0.00004     0.19866
             28  O  1 ZZZ     0.00005     0.18416
             29  O  1 XXY     0.00009     0.09825
             30  O  1 XXZ     0.00005     0.08045
             31  O  1 YYX     0.00007     0.10323
             32  O  1 YYZ     0.00007     0.07745
             33  O  1 ZZX     0.00000     0.10245
             34  O  1 ZZY     0.00000     0.09388
             35  O  1 XYZ     0.00000     0.00137
             36  H  2  S      0.40725     0.23442
             37  H  2  S      0.23982     0.17132
             38  H  2  S      0.00301     0.04799
             39  H  2  X      0.00538     0.00895
             40  H  2  Y      0.00793     0.01142
             41  H  2  Z      0.00449     0.00743
             42  H  2  X      0.02368     0.07308
             43  H  2  Y      0.02437     0.07660
             44  H  2  Z      0.01825     0.04660
             45  H  2 XX      0.00112     0.07499
             46  H  2 YY      0.00149     0.09390
             47  H  2 ZZ      0.00183     0.07366
             48  H  2 XY      0.00113     0.01012
             49  H  2 XZ      0.00178     0.00749
             50  H  2 YZ      0.00000     0.00928
             51  H  3  S      0.40733     0.24176
             52  H  3  S      0.23991     0.17115
             53  H  3  S      0.00300     0.04791
             54  H  3  X      0.00379     0.00703
             55  H  3  Y      0.00262     0.00480
             56  H  3  Z      0.01140     0.01607
             57  H  3  X      0.02270     0.06738
             58  H  3  Y      0.02098     0.05842
             59  H  3  Z      0.02270     0.06849
             60  H  3 XX      0.00316     0.06481
             61  H  3 YY      0.00017     0.05546
             62  H  3 ZZ      0.00012     0.12366
             63  H  3 XY      0.00222     0.00095
             64  H  3 XZ      0.00168     0.01462
             65  H  3 YZ      0.00000     0.01176

          ----- MULLIKEN ATOMIC OVERLAP POPULATIONS -----
          (OFF-DIAGONAL ELEMENTS NEED TO BE MULTIPLIED BY 2)

             1           2           3

    1    7.8171462
    2    0.3497491   0.4062217
    3    0.3498364  -0.0144641   0.4063894

          TOTAL MULLIKEN AND LOWDIN ATOMIC POPULATIONS
       ATOM         MULL.POP.    CHARGE          LOW.POP.     CHARGE
    1 O             8.516732   -0.516732         8.098477   -0.098477
    2 H             0.741507    0.258493         0.947261    0.052739
    3 H             0.741762    0.258238         0.954262    0.045738

          MULLIKEN SPHERICAL HARMONIC POPULATIONS
       ATOM           S       P       D      F      G      H      I    TOTAL
    1 O             3.73    4.77    0.01   0.00   0.00   0.00   0.00    8.52
    2 H             0.65    0.08    0.01   0.00   0.00   0.00   0.00    0.74
    3 H             0.65    0.08    0.01   0.00   0.00   0.00   0.00    0.74

          -------------------------------
          BOND ORDER AND VALENCE ANALYSIS     BOND ORDER THRESHOLD=0.050
          -------------------------------

                   BOND                       BOND                       BOND
  ATOM PAIR DIST  ORDER      ATOM PAIR DIST  ORDER      ATOM PAIR DIST  ORDER
    1   2  0.962  0.984        1   3  0.961  0.984

                       TOTAL       BONDED        FREE
      ATOM            VALENCE     VALENCE     VALENCE
    1 O                 1.967       1.967       0.000
    2 H                 0.998       0.998       0.000
    3 H                 0.998       0.998       0.000

    **** A SOLVENT MODEL IS IN USE IN THIS RUN ****
 ELECTRICAL PROPERTIES (MOMENTS, DENSITY, FIELD/GRADIENT, AND/OR POTENTIAL)
 ARE COMPUTED USING THE SOLVATED SYSTEM'S DENSITY MATRIX, BUT
 ONLY WITH AO INTEGRAL CONTRIBUTIONS FROM THE QUANTUM SOLUTE.
 WITH THE EXCEPTIONS THAT THE DIPOLE AND, OPTIONALLY, 
 POTENTIAL ARE PRINTED WITH THE SOLUTE CONTRIBUTION.

          ----------------------------
          SOLUTE ELECTROSTATIC MOMENTS
          ----------------------------

 POINT   1           X           Y           Z (BOHR)    CHARGE
                 6.624886    5.423679   -8.704175        0.00 (A.U.)
         DX          DY          DZ         /D/  (DEBYE)
    -1.562143    1.430312    0.881651    2.294208

          ----------------------------
          SYSTEM ELECTROSTATIC MOMENTS
          ----------------------------

 POINT   1           X           Y           Z (BOHR)    CHARGE
                 6.624886    5.423679   -8.704175        0.00 (A.U.)
         DX          DY          DZ         /D/  (DEBYE)
    -1.562143    1.430312    0.881651    2.294208
 INCLUDING PCM SURFACE CHARGES, TOTAL CHARGE=   -0.007328, AND TOTAL DIPOLE IS
         DX          DY          DZ         /D/  (DEBYE)
    -0.071426    0.058912    0.038999    0.100465
 ...... END OF PROPERTY EVALUATION ......
 CPU     0: STEP CPU TIME=     0.01 TOTAL CPU TIME=          1.8 (      0.0 MIN)
 TOTAL WALL CLOCK TIME=          2.3 SECONDS, CPU UTILIZATION IS    80.70%

             ----------------------------------------------
             -------   RESULTS OF PCM CALCULATION   -------
             ----------------------------------------------

 FREE ENERGY IN SOLVENT = <PSI| H(0)+V/2 |PSI>       =      -76.4501868289 A.U.
 INTERNAL ENERGY IN SOLVENT = <PSI| H(0) |PSI>       =      -76.4401937942 A.U.
 DELTA INTERNAL ENERGY =  <D-PSI| H(0) |D-PSI>       =        0.0000000000 A.U.
 ELECTROSTATIC INTERACTION                           =       -0.0099930347 A.U.
 PIEROTTI CAVITATION ENERGY                          =        0.0000000000 A.U.
 DISPERSION FREE ENERGY                              =        0.0000000000 A.U.
 REPULSION FREE ENERGY                               =        0.0000000000 A.U.
 TOTAL INTERACTION (DELTA + ES + CAV + DISP + REP)   =       -0.0099930347 A.U.
 TOTAL FREE ENERGY IN SOLVENT                        =      -76.4501868289 A.U.

 FREE ENERGY IN SOLVENT       =      -47973.22 KCAL/MOL
 INTERNAL ENERGY IN SOLVENT   =      -47966.95 KCAL/MOL
 DELTA INTERNAL ENERGY        =           0.00 KCAL/MOL
 ELECTROSTATIC INTERACTION    =          -6.27 KCAL/MOL
 PIEROTTI CAVITATION ENERGY   =           0.00 KCAL/MOL
 DISPERSION FREE ENERGY       =           0.00 KCAL/MOL
 REPULSION FREE ENERGY        =           0.00 KCAL/MOL
 TOTAL INTERACTION            =          -6.27 KCAL/MOL
 TOTAL FREE ENERGY IN SOLVENT =      -47973.22 KCAL/MOL

           -----  ENERGY CHANGE FROM GAS PHASE TO SOLVENT  -----
              ELEC          ELEC+CAV    ELEC+CAV+DIS+REP
            -5.580            -5.580              -5.580 KCAL/MOL

 -INTERNAL ENERGY IN SOLVENT-
    OMITS ES,CAV,DISP,REP (USES SOLVATED ORBITALS IN THE GAS PHASE HAMILTONIAN)
 -FREE ENERGY IN SOLVENT-
    INCLUDES ES+DISP+REP WHICH ARE IN THE SELF-CONSISTENT WAVEFUNCTION.
 -TOTAL FREE ENERGY IN SOLVENT-
    INCLUDES ES+DISP+REP+CAV, MEANING CAVITATION IS NOT IN THE SCF ENERGY.

 .... DONE PRINTING PCM SOLVENT SUMMARY ....
 CPU     0: STEP CPU TIME=     0.00 TOTAL CPU TIME=          1.8 (      0.0 MIN)
 TOTAL WALL CLOCK TIME=          2.3 SECONDS, CPU UTILIZATION IS    80.70%
               971088  WORDS OF DYNAMIC MEMORY USED
 EXECUTION OF GAMESS TERMINATED NORMALLY 14:47:02 12-SEP-2026    
 DDI: 263640 bytes (0.3 MB / 0 MWords) used by master data server.
Note: The following floating-point exceptions are signalling: IEEE_UNDERFLOW_FLAG IEEE_DENORMAL
Note: The following floating-point exceptions are signalling: IEEE_UNDERFLOW_FLAG IEEE_DENORMAL
Note: The following floating-point exceptions are signalling: IEEE_UNDERFLOW_FLAG IEEE_DENORMAL
Note: The following floating-point exceptions are signalling: IEEE_UNDERFLOW_FLAG IEEE_DENORMAL

 ----------------------------------------
 CPU timing information for all processes
 ========================================
 0: 1.761 + 1.136 = 2.897
 1: 1.750 + 0.191 = 1.942
 2: 1.715 + 0.394 = 2.109
 3: 1.756 + 0.137 = 1.894
 4: 1.755 + 1.477 = 3.232
 5: 1.730 + 2.155 = 3.886
 6: 1.723 + 0.838 = 2.561
 7: 1.755 + 0.160 = 1.916
 ----------------------------------------
Note: The following floating-point exceptions are signalling: IEEE_UNDERFLOW_FLAG IEEE_DENORMAL
Note: The following floating-point exceptions are signalling: IEEE_UNDERFLOW_FLAG IEEE_DENORMAL
Note: The following floating-point exceptions are signalling: IEEE_UNDERFLOW_FLAG IEEE_DENORMAL
Note: The following floating-point exceptions are signalling: IEEE_UNDERFLOW_FLAG IEEE_DENORMAL
 ddikick.x: exited gracefully.
unset echo
----- accounting info -----
Files used on the parent node nid003555 were:
-rw-r--r-- 1 darren01 e283  123746 Sep 12 14:47 /work/e283/e283/darren01/gamess/restart/aa002-water-pcseg2.dat
-rw-r--r-- 1 darren01 e283    1069 Sep 12 14:46 /work/e283/e283/darren01/gamess/restart/aa002-water-pcseg2.F05
-rw-r--r-- 1 darren01 e283 1668720 Sep 12 14:47 /work/e283/e283/darren01/gamess/restart/aa002-water-pcseg2.F10
-rw-r--r-- 1 darren01 e283       8 Sep 12 14:47 /work/e283/e283/darren01/gamess/restart/aa002-water-pcseg2.F26
-rw-r--r-- 1 darren01 e283       0 Sep 12 14:47 /work/e283/e283/darren01/gamess/restart/aa002-water-pcseg2.F27
ls: No match.
ls: No match.
ls: No match.
Sat 12 Sep 2026 02:47:03 PM BST
0.232u 0.086s 0:09.46 3.2%	0+0k 490+40io 9pf+0w
