1 : aa002-water-bare
2 : 00
3 : 8
----- GAMESS execution script 'rungms' -----
This job is running on host nid006681
under operating system Linux at Sat 12 Sep 2026 02:29:27 PM BST
Available scratch disk space (Kbyte units) at beginning of the job is
Filesystem                                         1K-blocks         Used  Available Use% Mounted on
10.253.101.2@o2ib1:10.253.101.3@o2ib1:/cls01096 125829120000 123917214432 1911905568  99% /mnt/lustre/a2fs-work3
GAMESS temporary binary files will be written to /work/e283/e283/darren01/gamess/restart
GAMESS supplementary output files will be written to /work/e283/e283/darren01/gamess/restart
Copying input file /mnt/lustre/a2fs-work3/work/e283/e283/darren01/jobs/aa002-water-bare/aa002-water-bare.inp to your run's scratch directory...
cp /mnt/lustre/a2fs-work3/work/e283/e283/darren01/jobs/aa002-water-bare/aa002-water-bare.inp /work/e283/e283/darren01/gamess/restart/aa002-water-bare.F05
unset echo
setenv NO_STOP_MESSAGE 1
setenv AUXDATA /work/e283/e283/darren01/gamess/auxdata
setenv EXTBAS /dev/null
setenv NUCBAS /mnt/lustre/a2fs-work3/work/e283/e283/darren01/jobs/aa002-water-bare/aa002-water-bare.nucbas
setenv EXTCAB /work/e283/e283/darren01/gamess/auxdata/AUXBAS/auxdef21
setenv POSBAS /mnt/lustre/a2fs-work3/work/e283/e283/darren01/jobs/aa002-water-bare/aa002-water-bare.posbas
setenv DFTBPAR /work/e283/e283/darren01/gamess/auxdata/DFTB
setenv ERICFMT /work/e283/e283/darren01/gamess/auxdata/ericfmt.dat
setenv MCPPATH /work/e283/e283/darren01/gamess/auxdata/MCP
setenv BASPATH /work/e283/e283/darren01/gamess/auxdata/BASES
setenv QUANPOL /work/e283/e283/darren01/gamess/auxdata/QUANPOL
setenv MAKEFP /work/e283/e283/darren01/gamess/restart/aa002-water-bare.efp
setenv GAMMA /work/e283/e283/darren01/gamess/restart/aa002-water-bare.gamma
setenv TRAJECT /work/e283/e283/darren01/gamess/restart/aa002-water-bare.trj
setenv RESTART /work/e283/e283/darren01/gamess/restart/aa002-water-bare.rst
setenv QMWAVE /work/e283/e283/darren01/gamess/restart/aa002-water-bare.qmw
setenv MDDIP /work/e283/e283/darren01/gamess/restart/aa002-water-bare.dip
setenv OPTHES1 /work/e283/e283/darren01/gamess/restart/aa002-water-bare.hs1
setenv OPTHES2 /work/e283/e283/darren01/gamess/restart/aa002-water-bare.hs2
setenv FCIDUMP /work/e283/e283/darren01/gamess/restart/aa002-water-bare.FCIDUMP
setenv XYZ /work/e283/e283/darren01/gamess/restart/aa002-water-bare.xyz
setenv IRCDATA /work/e283/e283/darren01/gamess/restart/aa002-water-bare.F04
setenv INPUT /work/e283/e283/darren01/gamess/restart/aa002-water-bare.F05
setenv PUNCH /work/e283/e283/darren01/gamess/restart/aa002-water-bare.dat
setenv NAMDRST /work/e283/e283/darren01/gamess/restart/aa002-water-bare.namdrst
setenv AOINTS /work/e283/e283/darren01/gamess/restart/aa002-water-bare.F08
setenv MOINTS /work/e283/e283/darren01/gamess/restart/aa002-water-bare.F09
setenv DICTNRY /work/e283/e283/darren01/gamess/restart/aa002-water-bare.F10
setenv DRTFILE /work/e283/e283/darren01/gamess/restart/aa002-water-bare.F11
setenv CIVECTR /work/e283/e283/darren01/gamess/restart/aa002-water-bare.F12
setenv CASINTS /work/e283/e283/darren01/gamess/restart/aa002-water-bare.F13
setenv CIINTS /work/e283/e283/darren01/gamess/restart/aa002-water-bare.F14
setenv WORK15 /work/e283/e283/darren01/gamess/restart/aa002-water-bare.F15
setenv WORK16 /work/e283/e283/darren01/gamess/restart/aa002-water-bare.F16
setenv CSFSAVE /work/e283/e283/darren01/gamess/restart/aa002-water-bare.F17
setenv FOCKDER /work/e283/e283/darren01/gamess/restart/aa002-water-bare.F18
setenv WORK19 /work/e283/e283/darren01/gamess/restart/aa002-water-bare.F19
setenv DASORT /work/e283/e283/darren01/gamess/restart/aa002-water-bare.F20
setenv DIABDAT /work/e283/e283/darren01/gamess/restart/aa002-water-bare.F21
setenv DFTINTS /work/e283/e283/darren01/gamess/restart/aa002-water-bare.F21
setenv DFTGRID /work/e283/e283/darren01/gamess/restart/aa002-water-bare.F22
setenv JKFILE /work/e283/e283/darren01/gamess/restart/aa002-water-bare.F23
setenv ORDINT /work/e283/e283/darren01/gamess/restart/aa002-water-bare.F24
setenv EFPIND /work/e283/e283/darren01/gamess/restart/aa002-water-bare.F25
setenv PCMDATA /work/e283/e283/darren01/gamess/restart/aa002-water-bare.F26
setenv PCMINTS /work/e283/e283/darren01/gamess/restart/aa002-water-bare.F27
setenv SVPWRK1 /work/e283/e283/darren01/gamess/restart/aa002-water-bare.F26
setenv SVPWRK2 /work/e283/e283/darren01/gamess/restart/aa002-water-bare.F27
setenv COSCAV /work/e283/e283/darren01/gamess/restart/aa002-water-bare.F26
setenv COSDATA /work/e283/e283/darren01/gamess/restart/aa002-water-bare.cosmo
setenv COSPOT /work/e283/e283/darren01/gamess/restart/aa002-water-bare.pot
setenv MLTPL /work/e283/e283/darren01/gamess/restart/aa002-water-bare.F28
setenv MLTPLT /work/e283/e283/darren01/gamess/restart/aa002-water-bare.F29
setenv DAFL30 /work/e283/e283/darren01/gamess/restart/aa002-water-bare.F30
setenv SOINTX /work/e283/e283/darren01/gamess/restart/aa002-water-bare.F31
setenv SOINTY /work/e283/e283/darren01/gamess/restart/aa002-water-bare.F32
setenv SOINTZ /work/e283/e283/darren01/gamess/restart/aa002-water-bare.F33
setenv SORESC /work/e283/e283/darren01/gamess/restart/aa002-water-bare.F34
setenv RISM01 /work/e283/e283/darren01/gamess/restart/aa002-water-bare.F26R
setenv RISM02 /work/e283/e283/darren01/gamess/restart/aa002-water-bare.F27R
setenv QOPWRF /work/e283/e283/darren01/gamess/restart/aa002-water-bare.wrf
setenv GCILIST /work/e283/e283/darren01/gamess/restart/aa002-water-bare.F37
setenv HESSIAN /work/e283/e283/darren01/gamess/restart/aa002-water-bare.F38
setenv QMMMTEI /work/e283/e283/darren01/gamess/restart/aa002-water-bare.F39
setenv SOCCDAT /work/e283/e283/darren01/gamess/restart/aa002-water-bare.F40
setenv AABB41 /work/e283/e283/darren01/gamess/restart/aa002-water-bare.F41
setenv BBAA42 /work/e283/e283/darren01/gamess/restart/aa002-water-bare.F42
setenv BBBB43 /work/e283/e283/darren01/gamess/restart/aa002-water-bare.F43
setenv REMD /work/e283/e283/darren01/gamess/restart/aa002-water-bare.F44
setenv UNV /work/e283/e283/darren01/gamess/restart/aa002-water-bare.F45
setenv UNPV /work/e283/e283/darren01/gamess/restart/aa002-water-bare.F46
setenv MCQD50 /work/e283/e283/darren01/gamess/restart/aa002-water-bare.F50
setenv MCQD51 /work/e283/e283/darren01/gamess/restart/aa002-water-bare.F51
setenv MCQD52 /work/e283/e283/darren01/gamess/restart/aa002-water-bare.F52
setenv MCQD53 /work/e283/e283/darren01/gamess/restart/aa002-water-bare.F53
setenv MCQD54 /work/e283/e283/darren01/gamess/restart/aa002-water-bare.F54
setenv MCQD55 /work/e283/e283/darren01/gamess/restart/aa002-water-bare.F55
setenv MCQD56 /work/e283/e283/darren01/gamess/restart/aa002-water-bare.F56
setenv MCQD57 /work/e283/e283/darren01/gamess/restart/aa002-water-bare.F57
setenv MCQD58 /work/e283/e283/darren01/gamess/restart/aa002-water-bare.F58
setenv MCQD59 /work/e283/e283/darren01/gamess/restart/aa002-water-bare.F59
setenv MCQD60 /work/e283/e283/darren01/gamess/restart/aa002-water-bare.F60
setenv MCQD61 /work/e283/e283/darren01/gamess/restart/aa002-water-bare.F61
setenv MCQD62 /work/e283/e283/darren01/gamess/restart/aa002-water-bare.F62
setenv MCQD63 /work/e283/e283/darren01/gamess/restart/aa002-water-bare.F63
setenv MCQD64 /work/e283/e283/darren01/gamess/restart/aa002-water-bare.F64
setenv NMRINT1 /work/e283/e283/darren01/gamess/restart/aa002-water-bare.F61
setenv NMRINT2 /work/e283/e283/darren01/gamess/restart/aa002-water-bare.F62
setenv NMRINT3 /work/e283/e283/darren01/gamess/restart/aa002-water-bare.F63
setenv NMRINT4 /work/e283/e283/darren01/gamess/restart/aa002-water-bare.F64
setenv NMRINT5 /work/e283/e283/darren01/gamess/restart/aa002-water-bare.F65
setenv NMRINT6 /work/e283/e283/darren01/gamess/restart/aa002-water-bare.F66
setenv DCPHFH2 /work/e283/e283/darren01/gamess/restart/aa002-water-bare.F67
setenv DCPHF21 /work/e283/e283/darren01/gamess/restart/aa002-water-bare.F68
setenv ELNUINT /work/e283/e283/darren01/gamess/restart/aa002-water-bare.F67
setenv NUNUINT /work/e283/e283/darren01/gamess/restart/aa002-water-bare.F68
setenv GVVPT /work/e283/e283/darren01/gamess/restart/aa002-water-bare.F69
setenv NUMOIN /work/e283/e283/darren01/gamess/restart/aa002-water-bare.F69
setenv NUMOCAS /work/e283/e283/darren01/gamess/restart/aa002-water-bare.F70
setenv NUELMO /work/e283/e283/darren01/gamess/restart/aa002-water-bare.F71
setenv NUELCAS /work/e283/e283/darren01/gamess/restart/aa002-water-bare.F72
setenv EPOVRLP /work/e283/e283/darren01/gamess/restart/aa002-water-bare.F73
setenv RIVMAT /work/e283/e283/darren01/gamess/restart/aa002-water-bare.F51
setenv RIT2A /work/e283/e283/darren01/gamess/restart/aa002-water-bare.F52
setenv RIT3A /work/e283/e283/darren01/gamess/restart/aa002-water-bare.F53
setenv RIT2B /work/e283/e283/darren01/gamess/restart/aa002-water-bare.F54
setenv RIT3B /work/e283/e283/darren01/gamess/restart/aa002-water-bare.F55
setenv KI /work/e283/e283/darren01/gamess/restart/aa002-water-bare.F47
setenv BI /work/e283/e283/darren01/gamess/restart/aa002-water-bare.F48
setenv PRMERI /work/e283/e283/darren01/gamess/restart/aa002-water-bare.F49
setenv TRSERI /work/e283/e283/darren01/gamess/restart/aa002-water-bare.F50
setenv PVP /work/e283/e283/darren01/gamess/restart/aa002-water-bare.F51
setenv TPVPI /work/e283/e283/darren01/gamess/restart/aa002-water-bare.F52
setenv TPVPJ /work/e283/e283/darren01/gamess/restart/aa002-water-bare.F53
setenv PPVPP /work/e283/e283/darren01/gamess/restart/aa002-water-bare.F54
setenv TPPVPP /work/e283/e283/darren01/gamess/restart/aa002-water-bare.F55
setenv DEN2P1 /work/e283/e283/darren01/gamess/restart/aa002-water-bare.F70
setenv DEN2P2 /work/e283/e283/darren01/gamess/restart/aa002-water-bare.F71
setenv DEN2P3 /work/e283/e283/darren01/gamess/restart/aa002-water-bare.F72
setenv DEN2P4 /work/e283/e283/darren01/gamess/restart/aa002-water-bare.F73
setenv DEN2NM /work/e283/e283/darren01/gamess/restart/aa002-water-bare.F74
setenv DEN2OPT /work/e283/e283/darren01/gamess/restart/aa002-water-bare.F75
setenv GMCREF /work/e283/e283/darren01/gamess/restart/aa002-water-bare.F70
setenv GMCO2R /work/e283/e283/darren01/gamess/restart/aa002-water-bare.F71
setenv GMCROC /work/e283/e283/darren01/gamess/restart/aa002-water-bare.F72
setenv GMCOOC /work/e283/e283/darren01/gamess/restart/aa002-water-bare.F73
setenv GMCCC0 /work/e283/e283/darren01/gamess/restart/aa002-water-bare.F74
setenv GMCHMA /work/e283/e283/darren01/gamess/restart/aa002-water-bare.F75
setenv GMCEI1 /work/e283/e283/darren01/gamess/restart/aa002-water-bare.F76
setenv GMCEI2 /work/e283/e283/darren01/gamess/restart/aa002-water-bare.F77
setenv GMCEOB /work/e283/e283/darren01/gamess/restart/aa002-water-bare.F78
setenv GMCEDT /work/e283/e283/darren01/gamess/restart/aa002-water-bare.F79
setenv GMCERF /work/e283/e283/darren01/gamess/restart/aa002-water-bare.F80
setenv GMCHCR /work/e283/e283/darren01/gamess/restart/aa002-water-bare.F81
setenv GMCGJK /work/e283/e283/darren01/gamess/restart/aa002-water-bare.F82
setenv GMCGAI /work/e283/e283/darren01/gamess/restart/aa002-water-bare.F83
setenv GMCGEO /work/e283/e283/darren01/gamess/restart/aa002-water-bare.F84
setenv GMCTE1 /work/e283/e283/darren01/gamess/restart/aa002-water-bare.F85
setenv GMCTE2 /work/e283/e283/darren01/gamess/restart/aa002-water-bare.F86
setenv GMCHEF /work/e283/e283/darren01/gamess/restart/aa002-water-bare.F87
setenv GMCMOL /work/e283/e283/darren01/gamess/restart/aa002-water-bare.F88
setenv GMCMOS /work/e283/e283/darren01/gamess/restart/aa002-water-bare.F89
setenv GMCWGT /work/e283/e283/darren01/gamess/restart/aa002-water-bare.F90
setenv GMCRM2 /work/e283/e283/darren01/gamess/restart/aa002-water-bare.F91
setenv GMCRM1 /work/e283/e283/darren01/gamess/restart/aa002-water-bare.F92
setenv GMCR00 /work/e283/e283/darren01/gamess/restart/aa002-water-bare.F93
setenv GMCRP1 /work/e283/e283/darren01/gamess/restart/aa002-water-bare.F94
setenv GMCRP2 /work/e283/e283/darren01/gamess/restart/aa002-water-bare.F95
setenv GMCVEF /work/e283/e283/darren01/gamess/restart/aa002-water-bare.F96
setenv GMCDIN /work/e283/e283/darren01/gamess/restart/aa002-water-bare.F97
setenv GMC2SZ /work/e283/e283/darren01/gamess/restart/aa002-water-bare.F98
setenv GMCCCS /work/e283/e283/darren01/gamess/restart/aa002-water-bare.F99
unset echo
removed '/work/e283/e283/darren01/gamess/restart/aa002-water-bare.dat'
 
Assuming a single but multicore node.
 
/work/e283/e283/darren01/gamess/ddikick.x /work/e283/e283/darren01/gamess/gamess.00.x aa002-water-bare -ddi 1 8 nid006681:cpus=8 -scr /work/e283/e283/darren01/gamess/restart

 Distributed Data Interface kickoff program.
 Initiating 8 compute processes on 1 nodes to run the following command:
 /work/e283/e283/darren01/gamess/gamess.00.x aa002-water-bare 

          *******************************************************
          *                                                     *
          *      GAMESS VERSION = 15 JUL 2024 (R2 Patch 1)          *
          *                                                     *
          *              doi.org/10.1063/5.0005188              *
          *                                                     *
          **************** 64 BIT LINUX VERSION *****************

  GAMESS HAS BEEN MADE POSSIBLE WITH IMPORTANT CONTRIBUTIONS FROM
  THE FOLLOWING INDIVIDUALS (IN ALPHABETICAL ORDER):

     IVANA ADAMOVIC, CHRISTINE AIKENS, TOMOKO AKAMA,
     MELISA ALKAN, YURI ALEXEEV, YURIKO AOKI, POOJA ARORA,
     TOSHIO ASADA, ANDREY ASADCHEV, KIM K. BALDRIDGE,
     PRADIPTA BANDYOPADHYAY, TAYLOR A. BARNES, MARIA BARYSZ,
     ROB BELL, JONATHAN BENTZ, COLLEEN BERTONI,
     JERRY A. BOATZ, BRETT BODE, KURT BRORSEN, KURT R. BRORSEN,
     LAIMUTIS BYTAUTAS, CALEB CARLIN, LAURA CARRINGTON,
     GALINA CHABAN, BENOIT CHAMPAGNE, WEI CHEN, MAHITO CHIBA,
     DAN CHIPMAN, CHEOL HO CHOI, TANNER CULPITT,
     DIPAYAN DATTA, PAUL DAY, ALBERT DEFUSCO,
     NUWAN DESILVA, J. EMILIANO DEUSTUA,
     TIM DUDLEY, MICHEL DUPUIS, STEVEN T. ELBERT,
     DMITRI FEDOROV, KATHERINE FERRERAS, MICHAEL FILATOV,
     ALEX FINDLATER,GRAHAM FLETCHER, MARK FREITAG,
     CHRISTIAN FRIEDL, DAVID GARMER, 
     IGOR S. GERASIMOV, KURT GLAESEMANN,
     MARK S. GORDON, JEFFREY R. GOUR, FENG LONG GU,
     EMILIE B. GUIDEZ, ANASTASIA GUNINA, SHARON HAMMES-SCHIFFER,
     MASATAKE HARUTA, KIMIHIKO HIRAO, YASUHIRO IKABATA,
     TZVETELIN IORDANOV, STEPHAN IRLE, KAZUYA ISHIMURA,
     JOE IVANIC, FRANK JENSEN, JAN H. JENSEN, VISVALDAS KAIRYS,
     MUNEAKI KAMIYA, MICHIO KATOUDA, NAOAKI KAWAKAMI, DAN KEMP,
     BERNARD KIRTMAN, KAZUO KITAURA, MARIUSZ KLOBUKOWSKI,
     MASATO KOBAYASHI, KONSTANTIN KOMAROV, PRAKASHAN KORAMBATH,
     JACEK KORCHOWIEC, SHIRO KOSEKI, KAROL KOWALSKI,
     JIMMY KROMANN, STANISLAW A. KUCHARSKI, HENRY KURTZ,
     SAROM SOK LEANG, SEUNGHOON LEE, HUI LI, SHUHUA LI, WEI LI,
     JESSE J. LUTZ, ALEKSANDR O. LYKHIN,
     ILIAS MAGOULAS, MARCIN MAKOWSKI,
     JOANI MATO, NIKITA MATSUNAGA, BENEDETTA MENNUCCI,
     GRANT MERRILL, NORIYUKI MINEZAWA, VLADIMIR MIRONOV,
     EISAKU MIYOSHI, JOHN A. MONTGOMERY JR., HIROTOSHI MORI,
     JONATHAN MULLIN, MONIKA MUSIAL, SHIGERU NAGASE,
     TAKESHI NAGATA, HIROMI NAKAI, TAKAHITO NAKAJIMA,
     YUYA NAKAJIMA, HARUYUKI NAKANO, HIROYA NAKATA, SEAN NEDD,
     HEATHER NETZLOFF, KIET A. NGUYEN, YOSHIO NISHIMOTO,
     BOSILJKA NJEGIC, RYAN OLSON, MIKE PAK, ROBERTO PEVERATI,
     BUU PHAM, PIOTR PIECUCH, ANNA POMOGAEVA, DAVID POOLE,
     SPENCER PRUITT, OLIVIER QUINET, LUKE ROSKOP,
     KLAUS RUEDENBERG, ANDREW SAND, TOSAPORN SATTASATHUCHANA,
     NOZOMI SAWADA, MICHAEL W. SCHMIDT, PATRICK E. SCHNEIDER,
     JUNJI SEINO, PRACHI SHARMA, JUN SHEN, JIM SHOEMAKER,
     GEORGE SCHOENDORFF, YINAN SHU, DEJUN SI, JONATHAN SKONE,
     LYUDMILA SLIPCHENKO, TONY SMITH, JIE SONG, MARK SPACKMAN,
     CASPER STEINMANN, WALT STEVENS, PEIFENG SU, SHUJUN SU,
     CHET SWALINA, CHINAMI TAKASHIMA, TETSUYA TAKETSUGU,
     ZHEN TAO, NANDUN THELLAMUREGE, ANANTA TIWARI,
     SEIKEN TOKURA, JACOPO TOMASI,
     TSUGUKI TOUMA, TAKAO TSUNEDA, HIROAKI UMEDA,
     JORGE LUIS GALVEZ VALLEJO, YALI WANG, SIMON WEBB,
     AARON WEST, THERESA L. WINDUS, MARTA WLOCH,
     PENG XU, KIYOSHI YAGI, SUSUMU YANAGISAWA, YANG YANG,
     SOOHAENG YOO, TAKESHI YOSHIKAWA, FEDERICO ZAHARIEV,
     TOBY ZENG

  WHO ARE SUPPORTED BY THEIR INSTITUTION/UNIVERSITY/COMPANY/GROUP
  (IN ALPHABETICAL ORDER):

     EP ANALYTICS,
     FACULTES UNIVERSITAIRES NOTRE-DAME DE LA PAIX,
     INSTITUTE FOR MOLECULAR SCIENCE, IOWA STATE UNIVERSITY,
     JACKSON STATE UNIVERSITY, JOHANNES KEPLER UNIVERSITY LINZ,
     KYUNGPOOK NATIONAL UNIVERSITY
     KYUSHU UNIVERSITY, MICHIGAN STATE UNIVERSITY,
     MIE UNIVERSITY, THE MOLECULAR SCIENCES SOFTWARE INSTITUTE,
     MOSCOW STATE UNIVERSITY,
     N. COPERNICUS UNIVERSITY, NAGOYA UNIVERSITY,
     NANJING UNIVERSITY, NAT. INST. OF ADVANCED INDUSTRIAL
     SCIENCE AND TECHNOLOGY, NATIONAL INST. OF STANDARDS AND
     TECHNOLOGY, NESMEYANOV INSTITUTE OF ORGANOELEMENT COMPOUNDS
     OF RUSSIAN ACADEMY OF SCIENCES, OSAKA PREFECTURE UNIVERSITY,
     PENNSYLVANIA STATE UNIVERSITY, TOKYO INSTITUTE OF TECHNOLOGY,
     UNIVERSITY OF AARHUS, UNIVERSITY OF ALBERTA,
     UNIVERSITY OF CALIFORNIA AT SANTA BARBARA,
     UNIVERSITY OF COPENHAGEN, UNIVERSITY OF IOWA,
     UNIVERSITY OF MEMPHIS, UNIVERSITY OF MINNESOTA,
     UNIVERSITY OF NEBRASKA, UNIVERSITY OF NEW ENGLAND,
     UNIVERSITY OF NOTRE DAME, UNIVERSITY OF PISA,
     UNIVERSITY OF SILESIA, UNIVERSITY OF TOKYO,
     UNIVERSITY OF ZURICH, WASEDA UNIVERSITY,
     YALE UNIVERSITY

  GAMESS SOFTWARE MANAGEMENT TEAM FOR THIS RELEASE:
     MARK S. GORDON (TEAM LEAD),
     BRETT BODE (SENIOR ADVISOR),
     GIUSEPPE BARCA,
     COLLEEN BERTONI,
     KRISTOPHER KEIPERT (ADVISOR),
     SAROM S. LEANG (DEVELOPMENT LEAD),
     BUU PHAM,
     JACKSON HAYES (WEBSITE ADMINISTRATOR),
     PENG XU


 PARALLEL VERSION RUNNING ON        8 PROCESSORS IN        1 NODES.

 EXECUTION OF GAMESS BEGUN 14:29:37 12-SEP-2026    

            ECHO OF THE FIRST FEW INPUT CARDS -
 INPUT CARD>! H2O | Standalone water at wB97X-D/6-21G+(d,p)/PCM(water)                      
 INPUT CARD>!                                                                               
 INPUT CARD>! Part of the standalone hydration thermodynamic cycle for acetaldehyde:        
 INPUT CARD>!   dG_hydration = G(hydrate) - [G(aldehyde) + G(water)]                        
 INPUT CARD>! See aa002-aldehyde-bare.inp for full provenance notes on the literature       
 INPUT CARD>! comparison (Sorensen & Jencks, JACS 1987, K_h = 1.2 +/- 0.1).                 
 INPUT CARD>!                                                                               
 INPUT CARD>! Kept at the SAME level of theory as the rest of the aa001 series              
 INPUT CARD>! (wB97X-D/6-21G+(d,p)/PCM(water)) for consistency.                             
 INPUT CARD>!                                                                               
 INPUT CARD>! Starting geometry: one of the genuinely intact spectator water                
 INPUT CARD>! molecules (O8/H9/H13, both hydrogens confirmed by direct O-H distance         
 INPUT CARD>! checks: 0.961 A and 0.981 A) extracted from the converged aa001h              
 INPUT CARD>! (aldehyde) cluster geometry, purely as a reasonable starting guess --         
 INPUT CARD>! it will fully relax on optimization regardless. NZVAR=3 (3*3-6) for           
 INPUT CARD>! this 3-atom system.                                                           
 INPUT CARD>!                                                                               
 INPUT CARD>! NOTE (correction): the first version of this file incorrectly used            
 INPUT CARD>! O8/H9/H10 -- H10 is actually covalently bonded to O7 (0.981 A), not           
 INPUT CARD>! O8 (1.769 A, a hydrogen-bond distance, not a real O-H bond). This was         
 INPUT CARD>! only checked via C3-O distances earlier (confirming neither water was         
 INPUT CARD>! bonded to carbon), not each water's own internal O-H pairing. GAMESS's        
 INPUT CARD>! automatic internal-coordinate generation correctly caught this --             
 INPUT CARD>! "THERE ARE NOT ENOUGH PRIMITIVE INTERNAL COORDINATES" -- since the            
 INPUT CARD>! genuine bond count for this "molecule" was only 1, not 2.                     
 INPUT CARD>                                                                                
 INPUT CARD> $BASIS GBASIS=N21 NGAUSS=6 NDFUNC=1 NPFUNC=1 DIFFSP=.t. $END                   
 INPUT CARD> $CONTRL SCFTYP=RHF RUNTYP=OPTIMIZE NZVAR=3 $END                                
 INPUT CARD> $CONTRL DFTTYP=wB97X-D $END                                                    
 INPUT CARD> $SCF DIIS=.t. DAMP=.t. $END                                                    
 INPUT CARD> $STATPT OPTTOL=0.00005 NSTEP=200 IHREP=20 HSSEND=.t. $END                      
 INPUT CARD> $ZMAT DLC=.t. AUTO=.t. $END                                                    
 INPUT CARD> $FORCE METHOD=SEMINUM PURIFY=.t. $END                                          
 INPUT CARD> $PCM SOLVNT=WATER $END                                                         
 INPUT CARD> $SYSTEM MWORDS=20 MEMDDI=20 $END                                               
 INPUT CARD>!$CONTRL EXETYP=CHECK $END                                                      
 INPUT CARD>                                                                                
 INPUT CARD> $DATA                                                                          
 INPUT CARD>Water, standalone, for acetaldehyde hydration thermodynamic cycle               
 INPUT CARD>C1                                                                              
 INPUT CARD>O     8.0      3.5486492584     2.8311475219    -4.6311803360                   
 INPUT CARD>H     1.0      3.0765449397     3.5122781864    -5.1178290703                   
 INPUT CARD>H     1.0      3.2539156984     2.8458984372    -3.6954621779                   
 INPUT CARD> $END                                                                           
     20000000 WORDS OF MEMORY AVAILABLE

     BASIS OPTIONS
     -------------
     GBASIS=N21          IGAUSS=       6      POLAR=COMMON  
     NDFUNC=       1     NFFUNC=       0     DIFFSP=       T
     NPFUNC=       1      DIFFS=       F     BASNAM=        


     RUN TITLE
     ---------
 Water, standalone, for acetaldehyde hydration thermodynamic cycle               

 THE POINT GROUP OF THE MOLECULE IS C1      
 THE ORDER OF THE PRINCIPAL AXIS IS     0

 ATOM      ATOMIC                      COORDINATES (BOHR)
           CHARGE         X                   Y                   Z
 O           8.0     6.7059747249        5.3500930472       -8.7516618348
 H           1.0     5.8138269249        6.6372433649       -9.6712945949
 H           1.0     6.1490090571        5.3779682352       -6.9834109142

          INTERNUCLEAR DISTANCES (ANGS.)
          ------------------------------

                1 O          2 H          3 H     

   1 O       0.0000000    0.9610663 *  0.9811493 *
   2 H       0.9610663 *  0.0000000    1.5807118 *
   3 H       0.9811493 *  1.5807118 *  0.0000000  

  * ... LESS THAN  3.000


     ATOMIC BASIS SET
     ----------------
 THE CONTRACTED PRIMITIVE FUNCTIONS HAVE BEEN UNNORMALIZED
 THE CONTRACTED BASIS FUNCTIONS ARE NOW NORMALIZED TO UNITY

  SHELL TYPE  PRIMITIVE        EXPONENT          CONTRACTION COEFFICIENT(S)

 O         

      1   S       1          5472.2700000    0.001832168810
      1   S       2           817.8060000    0.014104690837
      1   S       3           186.4460000    0.068626155420
      1   S       4            53.0230000    0.229375850996
      1   S       5            17.1800000    0.466398697024
      1   S       6             5.9119600    0.364172763431

      2   L       7             7.4029400   -0.404453583190    0.244586106967
      2   L       8             1.5762000    1.221561761397    0.853955373466

      3   L       9             0.3736840    1.000000000000    1.000000000000

      4   L      10             0.0845000    1.000000000000    1.000000000000

 H         

      5   S      11             5.4471780    0.156284978695
      5   S      12             0.8245472    0.904690876670

      6   S      13             0.1831916    1.000000000000

      7   P      14             1.1000000    1.000000000000

 H         

      8   S      15             5.4471780    0.156284978695
      8   S      16             0.8245472    0.904690876670

      9   S      17             0.1831916    1.000000000000

     10   P      18             1.1000000    1.000000000000

 TOTAL NUMBER OF BASIS SET SHELLS             =   10
 NUMBER OF CARTESIAN GAUSSIAN BASIS FUNCTIONS =   23
 NUMBER OF ELECTRONS                          =   10
 CHARGE OF MOLECULE                           =    0
 SPIN MULTIPLICITY                            =    1
 NUMBER OF OCCUPIED ORBITALS (ALPHA)          =    5
 NUMBER OF OCCUPIED ORBITALS (BETA )          =    5
 TOTAL NUMBER OF ATOMS                        =    3
 THE NUCLEAR REPULSION ENERGY IS        9.0544433248

 SELECTED MURRAY-HANDY-LAMING RADIAL GRID

 LEGACY BECKE'S FUZZY CELL METHOD

 SELECTED ORIGINAL BECKE'S PARTITION FUNCTION

     LEBEDEV GRID-BASED DFT OPTIONS
     ------------------------------
     DFTTYP=WB97X-D 
     NRAD  =      96     NLEB  =     302
     NRAD0 =      24     NLEB0 =     110
     SWOFF =    5.00E-03 (PURE SCF -> DFT)
     SWITCH=    3.00E-04 (COARSE -> TIGHT GRID)
     THRESH=    0.00E+00 GTHRE=    1.00E+00

     LC/CAM PARAMETERS
     -----------------
     ALPHAC =.22204  BETAC =.77796  CAMMU = 0.200  CAMVWN =  0.00  CAMLYP =  0.00

 GRIMME'S EMPIRICAL DISPERSION CORRECTION= T
  ________________________________

           DFTD3 V1.2             
   S.GRIMME, UNIVERSITY MUENSTER  
   WED MAR 10 08:38:00 CET 2010   
  ________________________________

 PLEASE CITE DFT-D2 WORK DONE WITH THIS CODE AS:
 S. GRIMME, J. COMPUT. CHEM., 27 (2006), 1787-1799

 DFT-D2 PARAMETERS WILL BE LOADED AND PRINTED
 BEFORE THE RESULTS

 IMPLEMENTATION OF DFT-D IN GAMESS BY:
 R.PEVERATI AND K.K.BALDRIDGE, 
 J.CHEM.THEORY COMPUT. 4,(2008), 2030-2048


     $CONTRL OPTIONS
     ---------------
 SCFTYP=RHF          RUNTYP=OPTIMIZE     EXETYP=RUN     
 MPLEVL=       0     CITYP =NONE         CCTYP =NONE         VBTYP =NONE    
 DFTTYP=WB97X-D      TDDFT =NONE    
 MULT  =       1     ICHARG=       0     NZVAR =       3     COORD =UNIQUE  
 PP    =NONE         RELWFN=NONE         LOCAL =NONE         NUMGRD=       F
 ISPHER=      -1     NOSYM =       0     MAXIT =      30     UNITS =ANGS    
 PLTORB=       F     MOLPLT=       F     AIMPAC=       F     FRIEND=        
 NPRINT=       7     IREST =       0     GEOM  =INPUT   
 NORMF =       0     NORMP =       0     ITOL  =      20     ICUT  =       9
 INTTYP=BEST         GRDTYP=BEST         QMTTOL= 1.0E-06

     $SYSTEM OPTIONS
     ---------------
  REPLICATED MEMORY=    20000000 WORDS (ON EVERY NODE).
 DISTRIBUTED MEMDDI=          20 MILLION WORDS IN AGGREGATE,
 MEMDDI DISTRIBUTED OVER   8 PROCESSORS IS     2500000 WORDS/PROCESSOR.
 TOTAL MEMORY REQUESTED ON EACH PROCESSOR=    22500000 WORDS.
 TIMLIM=      525600.00 MINUTES, OR     365.0 DAYS.
 PARALL= T  BALTYP=  DLB     KDIAG=    0  COREFL= F
 MXSEQ2=     300 MXSEQ3=     150  mem10=         0  mem22=         0

 ** LOOKING UP INTERNALLY STORED DATA FOR SOLVENT=WATER    **
 OPTICAL AND PHYSICAL CONSTANTS:
 EPS= 78.390; EPSINF=  1.776; RSOLV=  1.385 A; VMOL=  18.070 ML/MOL;
 TCE= .25700E-03 1/K; STEN= 71.810 DYN/CM;  DSTEN=  0.6500; CMF=  1.2770


     -----------------------------------
     INPUT FOR PCM SOLVATION CALCULATION 
     -----------------------------------
     IEF   =     -10
     ICOMP =       0     IFIELD=       0     ICAV  =       0
     IDISP =       0     IREP  =       0     IDP   =       0

     SOLVNT=WATER        EPS   = 78.3900     EPSINF=  1.7760
     VMOL  = 18.0700     TCE   =  0.00025700 STEN  = 71.8100
     DSTEN =  0.6500     CMF   =  1.2770     RSOLV =  1.3850

     NESFP =       0
     OMEGA = 40.0000     RET   =100.0000     FRO   =  0.7000

     TABS  =298.0000     IPRINT=       0

     --------------------------------
     INPUT FOR ITERATIVE C-PCM METHOD 
     --------------------------------
     IPCMIT  =         1     MXDIIS  =        50
     MXITR1  =        50     MXITR2  =        50
     THRES   = 0.100E-09     IMUL    =         3
     RCUT(1) =   15.0000     RCUT(2) =   30.0000

     IDIRCT  =         1
     IMGABI  =         0     RABI    =    4.0000
     IMGASC  =         0     RASC    =   20.0000
     THRSLS  = 0.500E-03     DENSLS  =    0.0100
     IEFPOL  =         1     REFPOL  =    0.0000

     INPUT FOR ISOTROPIC DIELECTRICS
     -------------------------------
     EPS=    78.39

     INPUT FOR CAVITY DEFINITION 
     ---------------------------
   ATOM               COORDINATES                RADIUS       EPS
      1      3.5486      2.8311     -4.6312      1.5000     78.3900
      2      3.0765      3.5123     -5.1178      1.2000     78.3900
      3      3.2539      2.8459     -3.6955      1.2000     78.3900

     ----------------------------
     INPUT FOR TESSERA DEFINITION
     ----------------------------
     NTSALL  =        60     MTHALL  =         4
     MTHAUT  =         0     AUTFRE  =    2.0000
     NTSFRZ  =        60     KEEPSM  =         0
     AREAKP  =   10.0000     BONDRY  =    1.0000
     AREATL  =    0.0100

     SPHERE     INITS       METHOD
          1        60       FIXPVA
          2        60       FIXPVA
          3        60       FIXPVA

     ------------------------------
      FIXPVA TESSELLATION FOR PCM
         PEIFENG SU AND HUI LI
     UNIVERSITY OF NEBRASKA-LINCOLN
     ------------------------------


     -----------------------------
     INPUT FOR PCM GRADIENT METHOD
     -----------------------------
     IPCDER  =         3     IFAST   =         0
     FIXPVA GRADIENTS BY PEIFENG SU AND HUI LI
  

 PCM DIMENSIONS: MXSP=  2000, MXTS=       180, MEMORY=         31963

          ----------------
          PROPERTIES INPUT
          ----------------

     MOMENTS            FIELD           POTENTIAL          DENSITY
 IEMOM =       1   IEFLD =       0   IEPOT =       0   IEDEN =       0
 WHERE =COMASS     WHERE =NUCLEI     WHERE =NUCLEI     WHERE =NUCLEI  
 OUTPUT=BOTH       OUTPUT=BOTH       OUTPUT=BOTH       OUTPUT=BOTH    
 IEMINT=       0   IEFINT=       0                     IEDINT=       0
                                                       MORB  =       0
          EXTRAPOLATION IN EFFECT
          DAMPING IN EFFECT
          DIIS IN EFFECT
 ORBITAL PRINTING OPTION: NPREO=     1    23     2     1

     ----------------------
     TARGET OFFLOAD OPTIONS
     ----------------------
     RHF    =       F
     CPHF    =       F
     MAKEFP =       F

     -------------------------------
     INTEGRAL TRANSFORMATION OPTIONS
     -------------------------------
     NWORD  =            0
     CUTTRF = 1.0E-09     MPTRAN =       0
     DIRTRF =       F     AOINTS =DUP     

          ----------------------
          INTEGRAL INPUT OPTIONS
          ----------------------
 NOPK  =       1 NORDER=       0 SCHWRZ=       F


 -----------------------------------------------
  STATISTICS ON AUTOMATIC COORDINATE GENERATION 
 -----------------------------------------------
  NUMBER OF USER SPECIFIED BONDS                             0
  NUMBER OF BONDS                                            2
  NUMBER OF ANGLES                                           1
  NUMBER OF TORSIONS                                         0
  NUMBER OF EXTRA COORD.                                     0
  NUMBER OF EXTRA COORD. FOR CONSTRAINTS                     0
  NUMBER OF CONSTRAINED COORD.                               0

  TOTAL NUMBER OF PRIMITIVES                                 3
 -----------------------------------------------

   --- ENCODED Z MATRIX ---
 COORD  TYPE   I   J   K   L   M   N
    1      1    1   3
    2      1    1   2
    3      2    2   1   3

          INDEP./SYM. INTERNAL COORDINATES
          --------------------------------
 CRD  1=   0.4505 (  1)  0.4451 (  2)  0.7739 (  3)
 CRD  2=  -0.4822 (  1) -0.6082 (  2)  0.6305 (  3)
 CRD  3=   0.7514 (  1) -0.6572 (  2)

 THE DETERMINANT OF THE G MATRIX IS 10**(    -1)


                     --------------------
                     INTERNAL COORDINATES
                     --------------------

                 - - ATOMS - -         COORDINATE      COORDINATE
 NO.   TYPE    I  J  K  L  M  N        (BOHR,RAD)       (ANG,DEG)
 ----------------------------------------------------------------
   1 STRETCH   1  3                     1.8541033       0.9811493
   2 STRETCH   1  2                     1.8161520       0.9610663
   3 BEND      2  1  3                  1.9014887     108.9472757

     ------------------------------------------
     THE POINT GROUP IS C1 , NAXIS= 1, ORDER= 1
     ------------------------------------------

     DIMENSIONS OF THE SYMMETRY SUBSPACES ARE
 A   =   23

 ..... DONE SETTING UP THE RUN .....
 CPU     0: STEP CPU TIME=     0.03 TOTAL CPU TIME=          0.0 (      0.0 MIN)
 TOTAL WALL CLOCK TIME=          0.0 SECONDS, CPU UTILIZATION IS    76.34%


          -----------------------------
          STATIONARY POINT LOCATION RUN
          -----------------------------

 OBTAINING INITIAL HESSIAN, HESS=GUESS   
 DIAGONAL GUESS HESSIAN IN INTERNAL COORDS IS
     1  0.3456     2  0.3594     3  0.1943
 TRANSFORMING HESSIAN TO SYMMETRY COORDINATES

          PARAMETERS CONTROLLING GEOMETRY SEARCH ARE
          METHOD =QA                  UPHESS =BFGS    
          NNEG   =         0          NFRZ   =         0
          NSTEP  =       200          IFOLOW =         1
          HESS   =GUESS               RESTAR =         F
          IHREP  =        20          HSSEND =         T
          NPRT   =         0          NPUN   =         0
          OPTTOL = 5.000E-05          RMIN   = 1.500E-03
          RMAX   = 1.000E-01          RLIM   = 7.000E-02
          DXMAX  = 3.000E-01          PURIFY =         F
          MOVIE  =         F          TRUPD  =         T
          TRMAX  = 5.000E-01          TRMIN  = 5.000E-02
          ITBMAT =         5          STPT   =         F
          STSTEP = 1.000E-02          PROJCT=          T

 BEGINNING GEOMETRY SEARCH POINT NSERCH=   0 ...

 COORDINATES OF ALL ATOMS ARE (ANGS)
   ATOM   CHARGE       X              Y              Z
 ------------------------------------------------------------
 O           8.0   3.5486492584   2.8311475219  -4.6311803360
 H           1.0   3.0765449397   3.5122781864  -5.1178290703
 H           1.0   3.2539156984   2.8458984372  -3.6954621779


                     --------------------
                     INTERNAL COORDINATES
                     --------------------

                 - - ATOMS - -         COORDINATE      COORDINATE
 NO.   TYPE    I  J  K  L  M  N        (BOHR,RAD)       (ANG,DEG)
 ----------------------------------------------------------------
   1 STRETCH   1  3                     1.8541033       0.9811493
   2 STRETCH   1  2                     1.8161520       0.9610663
   3 BEND      2  1  3                  1.9014887     108.9472757

          ********************
          1 ELECTRON INTEGRALS
          ********************
 ...... END OF ONE-ELECTRON INTEGRALS ......
 CPU     0: STEP CPU TIME=     0.00 TOTAL CPU TIME=          0.0 (      0.0 MIN)
 TOTAL WALL CLOCK TIME=          0.0 SECONDS, CPU UTILIZATION IS    75.64%

          -------------
          GUESS OPTIONS
          -------------
          GUESS =HUCKEL            NORB  =       0          NORDER=       0
          MIX   =       F          PRTMO =       F          PUNMO =       F
          TOLZ  = 1.0E-08          TOLE  = 1.0E-05
          SYMDEN=       F          PURIFY=       F

 INITIAL GUESS ORBITALS GENERATED BY HUCKEL   ROUTINE.
 HUCKEL GUESS REQUIRES      6316 WORDS.

 SYMMETRIES FOR INITIAL GUESS ORBITALS FOLLOW.   BOTH SET(S).
     5 ORBITALS ARE OCCUPIED (    1 CORE ORBITALS).
     2=A        3=A        4=A        5=A        6=A        7=A        8=A   
     9=A       10=A       11=A       12=A       13=A       14=A       15=A   
 ...... END OF INITIAL ORBITAL SELECTION ......
 CPU     0: STEP CPU TIME=     0.17 TOTAL CPU TIME=          0.2 (      0.0 MIN)
 TOTAL WALL CLOCK TIME=          0.4 SECONDS, CPU UTILIZATION IS    44.06%

                    ----------------------
                    AO INTEGRAL TECHNOLOGY
                    ----------------------
     S,P,L SHELL ROTATED AXIS INTEGRALS, REPROGRAMMED BY
        KAZUYA ISHIMURA (IMS) AND JOSE SIERRA (SYNSTAR).
     S,P,D,L SHELL ROTATED AXIS INTEGRALS PROGRAMMED BY
        KAZUYA ISHIMURA (INSTITUTE FOR MOLECULAR SCIENCE).
     S,P,D,F,G SHELL TO TOTAL QUARTET ANGULAR MOMENTUM SUM 5,
        ERIC PROGRAM BY GRAHAM FLETCHER (ELORET AND NASA ADVANCED
        SUPERCOMPUTING DIVISION, AMES RESEARCH CENTER).
     S,P,D,F,G,L SHELL GENERAL RYS QUADRATURE PROGRAMMED BY
        MICHEL DUPUIS (PACIFIC NORTHWEST NATIONAL LABORATORY).

          --------------------------------
          2 ELECTRON LC EXCHANGE INTEGRALS
          --------------------------------

 THE -PK- OPTION IS OFF, THE INTEGRALS ARE NOT IN SUPERMATRIX FORM.
 STORING   15000 INTEGRALS/RECORD ON DISK, USING 12 BYTES/INTEGRAL.
 TWO ELECTRON INTEGRAL EVALUATION REQUIRES   89411 WORDS OF MEMORY.
 II,JST,KST,LST =  1  1  1  1 NREC =         1 INTLOC =    1
 II,JST,KST,LST =  2  1  1  1 NREC =         1 INTLOC =    2
 II,JST,KST,LST =  3  1  1  1 NREC =         1 INTLOC =   34
 II,JST,KST,LST =  4  1  1  1 NREC =         1 INTLOC =  214
 II,JST,KST,LST =  5  1  1  1 NREC =         1 INTLOC =  487
 II,JST,KST,LST =  6  1  1  1 NREC =         1 INTLOC = 1670
 II,JST,KST,LST =  7  1  1  1 NREC =         1 INTLOC = 1969
 II,JST,KST,LST =  8  1  1  1 NREC =         1 INTLOC = 4303
 II,JST,KST,LST =  9  1  1  1 NREC =         1 INTLOC = 5074
 II,JST,KST,LST = 10  1  1  1 NREC =         1 INTLOC = 6232
 TOTAL NUMBER OF NONZERO TWO-ELECTRON INTEGRALS =               34541
          8 INTEGRAL RECORDS WERE STORED ON DISK FILE 21.
  ...... END OF TWO-ELECTRON INTEGRALS .....
 CPU     0: STEP CPU TIME=     0.01 TOTAL CPU TIME=          0.2 (      0.0 MIN)
 TOTAL WALL CLOCK TIME=          0.5 SECONDS, CPU UTILIZATION IS    41.99%

          --------------------
          2 ELECTRON INTEGRALS
          --------------------

 THE -PK- OPTION IS OFF, THE INTEGRALS ARE NOT IN SUPERMATRIX FORM.
 STORING   15000 INTEGRALS/RECORD ON DISK, USING 12 BYTES/INTEGRAL.
 TWO ELECTRON INTEGRAL EVALUATION REQUIRES   89411 WORDS OF MEMORY.
 II,JST,KST,LST =  1  1  1  1 NREC =         1 INTLOC =    1
 II,JST,KST,LST =  2  1  1  1 NREC =         1 INTLOC =    1
 II,JST,KST,LST =  3  1  1  1 NREC =         1 INTLOC =    1
 II,JST,KST,LST =  4  1  1  1 NREC =         1 INTLOC =    1
 II,JST,KST,LST =  5  1  1  1 NREC =         1 INTLOC =    1
 II,JST,KST,LST =  6  1  1  1 NREC =         1 INTLOC =    1
 II,JST,KST,LST =  7  1  1  1 NREC =         1 INTLOC =  226
 II,JST,KST,LST =  8  1  1  1 NREC =         1 INTLOC =  226
 II,JST,KST,LST =  9  1  1  1 NREC =         1 INTLOC =  917
 II,JST,KST,LST = 10  1  1  1 NREC =         1 INTLOC =  917
 TOTAL NUMBER OF NONZERO TWO-ELECTRON INTEGRALS =               34641
          8 INTEGRAL RECORDS WERE STORED ON DISK FILE  8.
  ...... END OF TWO-ELECTRON INTEGRALS .....
 CPU     0: STEP CPU TIME=     0.00 TOTAL CPU TIME=          0.2 (      0.0 MIN)
 TOTAL WALL CLOCK TIME=          0.5 SECONDS, CPU UTILIZATION IS    41.97%

          -------------------------------------
          ---- POLARISABLE CONTINUUM MODEL ----
          ----      UNIVERSITY OF PISA     ----
          -------------------------------------

     ----------------------------
     INPUT FOR TESSERA DEFINITION
     ----------------------------
     NTSALL  =        60     MTHALL  =         4
     MTHAUT  =         0     AUTFRE  =    2.0000
     NTSFRZ  =        60     KEEPSM  =         0
     AREAKP  =   10.0000     BONDRY  =    1.0000
     AREATL  =    0.0100

     SPHERE     INITS       METHOD
          1        60       FIXPVA
          2        60       FIXPVA
          3        60       FIXPVA

     ------------------------------
      FIXPVA TESSELLATION FOR PCM
         PEIFENG SU AND HUI LI
     UNIVERSITY OF NEBRASKA-LINCOLN
     ------------------------------


     INPUT FOR CAVITY DEFINITION 
     ---------------------------
   ATOM               COORDINATES                RADIUS       EPS
      1      3.5486      2.8311     -4.6312      1.5000     78.3900
      2      3.0765      3.5123     -5.1178      1.2000     78.3900
      3      3.2539      2.8459     -3.6955      1.2000     78.3900

 MEMORY USED TO GENERATE CAVITY=    176782


 TOTAL NUMBER OF SPHERES=     3
 SPHERE           CENTER  (X,Y,Z) (A)               RADIUS (A)      AREA(A*A)
     1   3.548649258   2.831147522  -4.631180336   1.800000000  21.202250071
     2   3.076544940   3.512278186  -5.117829070   1.440000000  10.380338012
     3   3.253915698   2.845898437  -3.695462178   1.440000000  10.327408780

 TOTAL NUMBER OF TESSERAE=      89
 SURFACE AREA=    41.90999686(A**2)    CAVITY VOLUME=     28.52033420 (A**3)
 CPU     0: STEP CPU TIME=     0.00 TOTAL CPU TIME=          0.2 (      0.0 MIN)
 TOTAL WALL CLOCK TIME=          0.5 SECONDS, CPU UTILIZATION IS    42.18%

          THE SOLUTE IS ENCLOSED IN ONE CAVITY
 DONE CHECKING SEPARATION.
 CPU     0: STEP CPU TIME=     0.00 TOTAL CPU TIME=          0.2 (      0.0 MIN)
 TOTAL WALL CLOCK TIME=          0.5 SECONDS, CPU UTILIZATION IS    42.19%

 ..... DONE GENERATING CAVITY .....
 CPU     0: STEP CPU TIME=     0.00 TOTAL CPU TIME=          0.2 (      0.0 MIN)
 TOTAL WALL CLOCK TIME=          0.5 SECONDS, CPU UTILIZATION IS    42.19%
 NUCLEI-NUCLEAR CHARGE POLARIZATION ADJUSTMENT TO VNN=        0.0000000000

          --------------------------
           R-WB97X-D SCF CALCULATION
          --------------------------

     NUCLEAR ENERGY =         9.0544433248
     MAXIT =   30     NPUNCH=    2
     EXTRAP=T  DAMP=T  SHIFT=F  RSTRCT=F  DIIS=T  DEM=F  SOSCF=F
         DENSITY MATRIX CONVERGENCE THRESHOLD=  1.00E-05
     COARSE -> FINE DFT GRID SWITCH THRESHOLD=  3.00E-04 (SWITCH IN $DFT)
                   HF -> DFT SWITCH THRESHOLD=  5.00E-03 (SWOFF IN $DFT)
     MEMORY REQUIRED FOR RHF ITERS=    222938 WORDS.

     EXCHANGE FUNCTIONAL   =WB97X-D   
     CORRELATION FUNCTIONAL=WB97X-D   
     DFT THRESHOLD         =.115E-07
     GRID CHANGE THRESHOLD =.300E-03
 FOR AN EULER-MACLAURIN QUADRATURE USING  96 RADIAL POINTS:
 SMALLEST GAUSSIAN PRIMITIVE EXPONENT=        0.0845000000 OF TYPE -P-
 ON ATOM NUMBER   1 HAS RADIAL NORMALIZATION=  1.000000
  LARGEST GAUSSIAN PRIMITIVE EXPONENT=     5472.2700000000 OF TYPE -S-
 ON ATOM NUMBER   1 HAS RADIAL NORMALIZATION=  1.000000
 DFT IS SWITCHED OFF, PERFORMING PURE SCF UNTIL SWOFF THRESHOLD IS REACHED.

 ITER EX DEM     TOTAL ENERGY        E CHANGE  DENSITY CHANGE    DIIS ERROR      VIR. SHIFT       DAMPING
   1  0  0      -75.6839180674   -75.6839180674   0.390970861   0.672183276     0.000000000     1.000000000
          * * *   INITIATING DIIS PROCEDURE   * * *
   2  1  0      -75.9471914326    -0.2632733652   0.085706711   0.114382826     0.000000000     1.000000000
   3  2  0      -75.9626259789    -0.0154345463   0.026648492   0.031360618     0.000000000     1.000000000
   4  3  0      -75.9645762337    -0.0019502548   0.004490754   0.009360475     0.000000000     1.000000000
 CONVERGED TO SWOFF, SO DFT CALCULATION IS NOW SWITCHED ON.
          * * *   INITIATING DIIS PROCEDURE   * * *
   5  4  0      -76.3378606614    -0.3732844277   0.034707523   0.064446913
   6  5  0      -76.3410508637    -0.0031902023   0.011131300   0.018006230
   7  6  0      -76.3411032822    -0.0000524185   0.005395974   0.015526903
   8  7  0      -76.3413385406    -0.0002352584   0.000467484   0.000989688
   9  8  0      -76.3413397427    -0.0000012021   0.000066865   0.000112891
  10  9  0      -76.3413397705    -0.0000000277   0.000006239   0.000012911
  11 10  0      -76.3413397707    -0.0000000002   0.000002017   0.000001670
  12 11  0      -76.3413397707    -0.0000000000   0.000000459   0.000000275

          -----------------
          DENSITY CONVERGED
          -----------------
     TIME TO FORM FOCK OPERATORS=       0.2 SECONDS (       0.0 SEC/ITER)
     TIME TO SOLVE SCF EQUATIONS=       0.0 SECONDS (       0.0 SEC/ITER)

          ----------------------------
          DFT-D PARAMETERS AND RESULTS
          ----------------------------
 C6 COEFFICIENTS USED:
       1 C6 FOR ELEMENT   1
  Z=  1 C6(AA)=    2.43
       1 C6 FOR ELEMENT   8
  Z=  8 C6(AA)=   12.14

 #          XYZ [AU]             R0(AA) [ANG.]  CN         C6(AA)     C8(AA)   C10(AA) [AU]
  1   6.70597   5.35009  -8.75166    8  1.220  1.984        12.1       245.0      6057.3
  2   5.81383   6.63724  -9.67129    1  0.910  0.994         2.4        29.4       434.7
  3   6.14901   5.37797  -6.98341    1  0.910  0.991         2.4        29.4       434.7

     MOLECULAR C6(AA) [AU] =        43.57

           DFT-D V2

 FUNCTIONAL: WB97X-D 

 PARAMETERS
 S6       :    1.0000
 RS6      :    1.1000
 USING CHAI-HEAD-GORDON DAMPING FUNCTION
 ALPHA6   :    6.0000

 EDISP /KCAL,AU:    -0.0215 -0.00003434

 E6    /KCAL :    -0.0215

 FINAL R-WB97X-D ENERGY IS      -76.3413741100 AFTER  12 ITERATIONS
 DFT EXCHANGE + CORRELATION ENERGY =        -6.4473088945
 TOTAL ELECTRON NUMBER             =        10.0000071182
 GRIMME'S DISPERSION ENERGY                     =       -0.0000343394
 ENERGY WITHOUT GRIMME'S DISPERSION CORRECTION IS      -76.3413397707

 Alpha HOMO=   -11.100237 eV, LUMO=    3.776415 eV, gap=   14.876652 eV
  
   PCM ASC=     -0.0118905013
   GCAVP  =      0.0000000000
   GDISP  =      0.0000000000
   GREP   =      0.0000000000

          ------------
          EIGENVECTORS
          ------------

                      1          2          3          4          5
                  -19.3204    -1.1267    -0.6315    -0.4727    -0.4079
                     A          A          A          A          A   
    1  O  1  S    0.993816  -0.229743  -0.002339  -0.081975  -0.000023
    2  O  1  S    0.026345   0.256190   0.002136   0.084715   0.000034
    3  O  1  X   -0.001098  -0.063752   0.051802   0.311697   0.372609
    4  O  1  Y    0.001013   0.059333  -0.182283  -0.284281   0.338374
    5  O  1  Z    0.000589   0.032744   0.378303  -0.178219   0.112011
    6  O  1  S   -0.004376   0.640036   0.012592   0.339400   0.000086
    7  O  1  X    0.000523  -0.049723   0.039230   0.295332   0.383627
    8  O  1  Y   -0.000478   0.045658  -0.141399  -0.269127   0.348321
    9  O  1  Z   -0.000296   0.027323   0.296697  -0.169560   0.115335
   10  O  1  S    0.000251   0.035634   0.002450   0.109359  -0.000178
   11  O  1  X    0.000148  -0.004801   0.003785   0.079850   0.131123
   12  O  1  Y   -0.000140   0.004611  -0.012218  -0.072915   0.118959
   13  O  1  Z   -0.000068   0.001971   0.024455  -0.045268   0.039446
   14  H  2  S    0.000159   0.131086  -0.236937  -0.128160   0.000060
   15  H  2  S    0.000671   0.015649  -0.159467  -0.106676   0.000072
   16  H  2  X   -0.000190   0.012746  -0.021077   0.003667   0.017986
   17  H  2  Y    0.000248  -0.019273   0.027428   0.003668   0.016314
   18  H  2  Z   -0.000117   0.015749  -0.012624  -0.023213   0.005413
   19  H  3  S    0.000188   0.122859   0.232986  -0.130224  -0.000007
   20  H  3  S    0.000624   0.016347   0.161059  -0.112042   0.000001
   21  H  3  X   -0.000121   0.006432   0.014895   0.008176   0.017274
   22  H  3  Y    0.000048   0.001195  -0.005719  -0.014446   0.015689
   23  H  3  Z    0.000256  -0.025024  -0.032328   0.016468   0.005191

                      6          7          8          9         10
                    0.1388     0.2154     0.2412     0.2476     0.3264
                     A          A          A          A          A   
    1  O  1  S    0.099412   0.001734   0.057018   0.000098   0.010570
    2  O  1  S   -0.089855  -0.000337  -0.036801  -0.000104  -0.005568
    3  O  1  X    0.099908  -0.022999  -0.119665  -0.174916  -0.003861
    4  O  1  Y   -0.088227   0.085935   0.109128  -0.159316   0.098031
    5  O  1  Z   -0.064510  -0.185274   0.068213  -0.052376  -0.283180
    6  O  1  S   -0.704090  -0.019965  -0.482203  -0.000686  -0.102486
    7  O  1  X    0.091437  -0.028815  -0.199203  -0.313093  -0.005850
    8  O  1  Y   -0.077314   0.115185   0.181522  -0.284965   0.221992
    9  O  1  Z   -0.068431  -0.256034   0.113881  -0.093831  -0.650915
   10  O  1  S    1.493803  -0.035446  -0.024793   0.000930  -0.514591
   11  O  1  X   -0.323951   0.177176   0.833304   0.796223  -0.003955
   12  O  1  Y    0.299943  -0.594132  -0.754773   0.725073   0.325607
   13  O  1  Z    0.166856   1.214754  -0.491063   0.237493  -0.970051
   14  H  2  S    0.078624  -0.007694   0.028701   0.000172  -0.145014
   15  H  2  S   -0.265591   0.429392   0.389321  -0.000658  -1.175449
   16  H  2  X   -0.009527   0.010831   0.006258   0.001856   0.006873
   17  H  2  Y    0.016221  -0.016447  -0.007103   0.001769  -0.001860
   18  H  2  Z   -0.017342   0.013668   0.000628   0.000519  -0.017141
   19  H  3  S    0.087957   0.016253   0.029488   0.000088   0.219168
   20  H  3  S   -0.207559  -0.370702   0.411364   0.000780   1.911863
   21  H  3  X   -0.004276  -0.005131   0.005326   0.002211  -0.004828
   22  H  3  Y   -0.003205  -0.001589  -0.003452   0.002007   0.009106
   23  H  3  Z    0.023886   0.021857  -0.007296   0.000649  -0.011516

                     11         12         13         14         15
                    0.3561     1.2490     1.3193     1.5708     1.6237
                     A          A          A          A          A   
    1  O  1  S   -0.068216  -0.003052  -0.035990   0.003691   0.035948
    2  O  1  S    0.034880   0.017898   0.134212   0.017840   0.074397
    3  O  1  X   -0.159827   0.016133  -0.168693  -0.162879  -0.575658
    4  O  1  Y    0.166546  -0.115061   0.160080   0.408660   0.494741
    5  O  1  Z    0.028330   0.293703   0.077835  -0.693474   0.419497
    6  O  1  S    0.718167  -0.055683  -0.430054  -0.105451  -0.510199
    7  O  1  X   -0.393013   0.023212   0.088316   0.286046   0.812328
    8  O  1  Y    0.409561  -0.019488  -0.067367  -0.751040  -0.687971
    9  O  1  Z    0.069907  -0.018255  -0.090513   1.317776  -0.623115
   10  O  1  S    2.418689  -0.184122  -1.739244  -0.082084  -0.236394
   11  O  1  X   -0.572876  -0.055792   0.483094  -0.042879  -0.212693
   12  O  1  Y    0.587566   0.338712  -0.474028   0.127650   0.180085
   13  O  1  Z    0.132356  -0.837331  -0.175128  -0.243334   0.163120
   14  H  2  S   -0.215414   0.871572  -1.087617   0.333292   0.219530
   15  H  2  S   -2.208595  -1.472451   2.015999   0.415174   0.238922
   16  H  2  X   -0.012880  -0.047625   0.001534   0.100788   0.206167
   17  H  2  Y    0.013621   0.032497  -0.037240  -0.197131  -0.183270
   18  H  2  Z    0.001835   0.060213   0.107437   0.260300  -0.132068
   19  H  3  S   -0.141398  -1.063430  -0.866009  -0.303523   0.306441
   20  H  3  S   -1.513886   1.872657   1.667856  -0.233082   0.259300
   21  H  3  X   -0.014120   0.050582  -0.037135   0.024362   0.209209
   22  H  3  Y    0.013178  -0.051034   0.073535  -0.121883  -0.173215
   23  H  3  Z    0.007219  -0.014102  -0.098497   0.287025  -0.172575

                     16         17         18         19         20
                    1.6743     2.0014     2.1984     2.3109     2.3441
                     A          A          A          A          A   
    1  O  1  S   -0.000013  -0.000001   0.032869   0.000001   0.001519
    2  O  1  S    0.000044   0.000010  -0.330563  -0.000019   0.005526
    3  O  1  X   -0.725841  -0.012207  -0.301550   0.180849  -0.031007
    4  O  1  Y   -0.659379  -0.011103   0.274728   0.164149   0.113280
    5  O  1  Z   -0.218232  -0.003659   0.173348   0.054384  -0.238706
    6  O  1  S    0.000036  -0.000012   0.350231   0.000027  -0.033777
    7  O  1  X    0.786747   0.004486   0.606756  -0.499864   0.104745
    8  O  1  Y    0.714863   0.004091  -0.554282  -0.453732  -0.363305
    9  O  1  Z    0.236457   0.001336  -0.344322  -0.150346   0.748167
   10  O  1  S   -0.000004   0.000003  -0.178490   0.000010  -0.012188
   11  O  1  X   -0.318673  -0.001721  -0.107204   0.062673  -0.004764
   12  O  1  Y   -0.289533  -0.001576   0.097326   0.056896   0.029844
   13  O  1  Z   -0.095816  -0.000506   0.062615   0.018850  -0.074207
   14  H  2  S   -0.000150   0.000028   0.264770  -0.000020   0.337241
   15  H  2  S   -0.000017   0.000012  -0.061933  -0.000020   0.032600
   16  H  2  X    0.088631   0.514546  -0.362774   0.546801   0.371868
   17  H  2  Y    0.080616   0.467185   0.231209   0.496530  -0.215777
   18  H  2  Z    0.026635   0.154677   0.508473   0.164479  -0.584856
   19  H  3  S    0.000004  -0.000014   0.267571   0.000042  -0.326146
   20  H  3  S    0.000053  -0.000007  -0.071992  -0.000011   0.003827
   21  H  3  X    0.102464  -0.511233  -0.435751   0.544462  -0.461722
   22  H  3  Y    0.093179  -0.464128   0.495403   0.494169   0.553358
   23  H  3  Z    0.030786  -0.153728  -0.046590   0.163709  -0.134761

                     21         22         23
                    2.8431     2.9004     3.0421
                     A          A          A   
    1  O  1  S    0.037404   0.053493  -0.105200
    2  O  1  S   -0.664899  -1.510859  -0.066959
    3  O  1  X   -0.031275   0.063908  -0.241211
    4  O  1  Y    0.196993  -0.132492   0.248142
    5  O  1  Z   -0.490907   0.187385   0.052928
    6  O  1  S    0.785857   2.058402   1.481863
    7  O  1  X   -0.126335  -0.315204  -0.451933
    8  O  1  Y    0.213833   0.241820   0.419526
    9  O  1  Z   -0.225436   0.318354   0.236278
   10  O  1  S   -0.103305  -0.100636   0.497041
   11  O  1  X   -0.058360  -0.081319  -0.120488
   12  O  1  Y    0.128444   0.044855   0.120067
   13  O  1  Z   -0.193816   0.134917   0.038134
   14  H  2  S   -0.130257  -0.320703  -0.332627
   15  H  2  S   -0.699996  -0.104666  -0.833923
   16  H  2  X   -0.375103   0.226072  -0.420961
   17  H  2  Y    0.521714  -0.223272   0.697826
   18  H  2  Z   -0.327918  -0.077662  -0.707188
   19  H  3  S   -0.113846  -0.337529  -0.311583
   20  H  3  S    0.535901  -0.621353  -0.681860
   21  H  3  X    0.339283  -0.057188  -0.135805
   22  H  3  Y   -0.126541  -0.097596  -0.141478
   23  H  3  Z   -0.746307   0.484861   0.878896
 ...... END OF RHF CALCULATION ......
 CPU     0: STEP CPU TIME=     0.24 TOTAL CPU TIME=          0.5 (      0.0 MIN)
 TOTAL WALL CLOCK TIME=          0.8 SECONDS, CPU UTILIZATION IS    57.29%

     ---------------------------------------------------------------------
     PROPERTIES FOR THE WB97X-D  DFT FUNCTIONAL (RHF  TYPE) DENSITY MATRIX
     ---------------------------------------------------------------------

          ---------------------------------------
          MULLIKEN AND LOWDIN POPULATION ANALYSES
          ---------------------------------------

     ATOMIC MULLIKEN POPULATION IN EACH MOLECULAR ORBITAL

                      1          2          3          4          5

                  2.000000   2.000000   2.000000   2.000000   2.000000

    1             1.999859   1.695355   1.233184   1.782735   1.975868
    2             0.000070   0.159519   0.381848   0.105192   0.012587
    3             0.000071   0.145127   0.384968   0.112073   0.011545

               ----- POPULATIONS IN EACH AO -----
                             MULLIKEN      LOWDIN
              1  O  1  S      1.99554     1.98650
              2  O  1  S      0.43700     0.53137
              3  O  1  X      0.77235     0.75229
              4  O  1  Y      0.74516     0.71937
              5  O  1  Z      0.63111     0.58399
              6  O  1  S      1.34675     0.86458
              7  O  1  X      0.87394     0.84451
              8  O  1  Y      0.82539     0.80489
              9  O  1  Z      0.64521     0.65319
             10  O  1  S      0.07143     0.14839
             11  O  1  X      0.15774     0.20099
             12  O  1  Y      0.13527     0.18406
             13  O  1  Z      0.05011     0.12260
             14  H  2  S      0.44083     0.42965
             15  H  2  S      0.16427     0.25184
             16  H  2  X      0.01678     0.04035
             17  H  2  Y      0.02255     0.05463
             18  H  2  Z      0.01479     0.03326
             19  H  3  S      0.42727     0.41777
             20  H  3  S      0.17580     0.25518
             21  H  3  X      0.01215     0.02869
             22  H  3  Y      0.00970     0.02184
             23  H  3  Z      0.02886     0.07007

          ----- MULLIKEN ATOMIC OVERLAP POPULATIONS -----
          (OFF-DIAGONAL ELEMENTS NEED TO BE MULTIPLIED BY 2)

             1           2           3

    1    8.1129251
    2    0.2886083   0.3984910
    3    0.2854670  -0.0278828   0.3961989

          TOTAL MULLIKEN AND LOWDIN ATOMIC POPULATIONS
       ATOM         MULL.POP.    CHARGE          LOW.POP.     CHARGE
    1 O             8.687000   -0.687000         8.396725   -0.396725
    2 H             0.659217    0.340783         0.809727    0.190273
    3 H             0.653783    0.346217         0.793548    0.206452

          -------------------------------
          BOND ORDER AND VALENCE ANALYSIS     BOND ORDER THRESHOLD=0.050
          -------------------------------

                   BOND                       BOND                       BOND
  ATOM PAIR DIST  ORDER      ATOM PAIR DIST  ORDER      ATOM PAIR DIST  ORDER
    1   2  0.961  0.870        1   3  0.981  0.867

                       TOTAL       BONDED        FREE
      ATOM            VALENCE     VALENCE     VALENCE
    1 O                 1.737       1.737      -0.000
    2 H                 0.880       0.880       0.000
    3 H                 0.877       0.877      -0.000

    **** A SOLVENT MODEL IS IN USE IN THIS RUN ****
 ELECTRICAL PROPERTIES (MOMENTS, DENSITY, FIELD/GRADIENT, AND/OR POTENTIAL)
 ARE COMPUTED USING THE SOLVATED SYSTEM'S DENSITY MATRIX, BUT
 ONLY WITH AO INTEGRAL CONTRIBUTIONS FROM THE QUANTUM SOLUTE.
 WITH THE EXCEPTIONS THAT THE DIPOLE AND, OPTIONALLY, 
 POTENTIAL ARE PRINTED WITH THE SOLUTE CONTRIBUTION.

          ----------------------------
          SOLUTE ELECTROSTATIC MOMENTS
          ----------------------------

 POINT   1           X           Y           Z (BOHR)    CHARGE
                 6.624886    5.423679   -8.704175       -0.00 (A.U.)
         DX          DY          DZ         /D/  (DEBYE)
    -1.836317    1.672546    1.061012    2.700966

          ----------------------------
          SYSTEM ELECTROSTATIC MOMENTS
          ----------------------------

 POINT   1           X           Y           Z (BOHR)    CHARGE
                 6.624886    5.423679   -8.704175       -0.00 (A.U.)
         DX          DY          DZ         /D/  (DEBYE)
    -1.836317    1.672546    1.061012    2.700966
 INCLUDING PCM SURFACE CHARGES, TOTAL CHARGE=   -0.011891, AND TOTAL DIPOLE IS
         DX          DY          DZ         /D/  (DEBYE)
    -0.109168    0.090704    0.057336    0.153076
 ...... END OF PROPERTY EVALUATION ......
 CPU     0: STEP CPU TIME=     0.01 TOTAL CPU TIME=          0.5 (      0.0 MIN)
 TOTAL WALL CLOCK TIME=          0.8 SECONDS, CPU UTILIZATION IS    57.56%

 .... DONE WITH PCM CONTRIBUTION TO GRADIENT ....
 CPU     0: STEP CPU TIME=     0.00 TOTAL CPU TIME=          0.5 (      0.0 MIN)
 TOTAL WALL CLOCK TIME=          0.8 SECONDS, CPU UTILIZATION IS    57.62%

 BEGINNING ONE ELECTRON GRADIENT...

          ----------------------------
          DFT-D PARAMETERS AND RESULTS
          ----------------------------
 C6 COEFFICIENTS USED:
       1 C6 FOR ELEMENT   1
  Z=  1 C6(AA)=    2.43
       1 C6 FOR ELEMENT   8
  Z=  8 C6(AA)=   12.14

 #          XYZ [AU]             R0(AA) [ANG.]  CN         C6(AA)     C8(AA)   C10(AA) [AU]
  1   6.70597   5.35009  -8.75166    8  1.220  1.984        12.1       245.0      6057.3
  2   5.81383   6.63724  -9.67129    1  0.910  0.994         2.4        29.4       434.7
  3   6.14901   5.37797  -6.98341    1  0.910  0.991         2.4        29.4       434.7

     MOLECULAR C6(AA) [AU] =        43.57

           DFT-D V2

 FUNCTIONAL: WB97X-D 

 PARAMETERS
 S6       :    1.0000
 RS6      :    1.1000
 USING CHAI-HEAD-GORDON DAMPING FUNCTION
 ALPHA6   :    6.0000

 EDISP /KCAL,AU:    -0.0215 -0.00003434

 E6    /KCAL :    -0.0215
 ..... END OF 1-ELECTRON GRADIENT ......
 CPU     0: STEP CPU TIME=     0.01 TOTAL CPU TIME=          0.5 (      0.0 MIN)
 TOTAL WALL CLOCK TIME=          0.8 SECONDS, CPU UTILIZATION IS    58.13%

          ----------------------
          GRADIENT OF THE ENERGY
          ----------------------
 MEMORY FOR GRID POINT CONTRIBUTIONS TO THE DFT GRADIENT=    136239 WORDS.
 CPU     0: STEP CPU TIME=     0.03 TOTAL CPU TIME=          0.5 (      0.0 MIN)
 TOTAL WALL CLOCK TIME=          0.8 SECONDS, CPU UTILIZATION IS    59.51%
 THE COARSE/FINE SCHWARZ SCREENINGS SKIPPED            0/           0 BLOCKS.
 THE NUMBER OF GRADIENT INTEGRAL BLOCKS COMPUTED WAS      2886
 ...... END OF 2-ELECTRON GRADIENT ......
 CPU     0: STEP CPU TIME=     0.00 TOTAL CPU TIME=          0.5 (      0.0 MIN)
 TOTAL WALL CLOCK TIME=          0.8 SECONDS, CPU UTILIZATION IS    59.60%

          NSERCH=  0     ENERGY=     -76.3413741

                                 -----------------------
                                 GRADIENT (HARTREE/BOHR)
                                 -----------------------
        ATOM     ZNUC       DE/DX         DE/DY         DE/DZ
 --------------------------------------------------------------
    1  O            8.0     0.0019601     0.0032283    -0.0165871
    2  H            1.0     0.0017505    -0.0009718    -0.0032264
    3  H            1.0    -0.0037107    -0.0022565     0.0198135


                     --------------------
                     INTERNAL COORDINATES
                     --------------------

                 - - ATOMS - -         COORDINATE        GRADIENT
 NO.   TYPE    I  J  K  L  M  N         (ANG,DEG)     (H/B,H/RAD)
 ----------------------------------------------------------------
   1 SYM.CRD.                           1.6485014       0.0142279
   2 SYM.CRD.                          -0.4232370      -0.0054561
   3 SYM.CRD.                           0.0458665       0.0145480

 NOTE: CARTESIAN GRADIENTS ARE ALWAYS TAKEN TO TEST CONVERGENCE,
       SO THE FOLLOWING GRADIENTS ARE CARTESIAN.

          MAXIMUM GRADIENT = 0.0197988    RMS GRADIENT = 0.0089351

 NSERCH:   0  E=      -76.3413741100  GRAD. MAX=  0.0197988  R.M.S.=  0.0089351

          FORCE CONSTANT MATRIX NOT UPDATED --- TAKING FIRST STEP
          MIN SEARCH, CORRECT HESSIAN, TRYING PURE NR STEP
               NR STEP HAS LENGTH         =   0.067318
          RADIUS OF STEP TAKEN=   0.06732  CURRENT TRUST RADIUS=   0.30000
          TRANSFORMING DISPLACEMENT FROM INTERNALS TO CARTESIANS
          THE ROOT MEAN SQUARE ERROR IN ITERATION   1 IS   0.00066038
          THE ROOT MEAN SQUARE ERROR IN ITERATION   2 IS   0.00000013
          THE ROOT MEAN SQUARE ERROR IN ITERATION   3 IS   0.00000000

 BEGINNING GEOMETRY SEARCH POINT NSERCH=   1 ...

 COORDINATES OF ALL ATOMS ARE (ANGS)
   ATOM   CHARGE       X              Y              Z
 ------------------------------------------------------------
 O           8.0   3.5491538041   2.8302298793  -4.6300873820
 H           1.0   3.0694798353   3.5152775560  -5.1033883519
 H           1.0   3.2529732985   2.8574627178  -3.7272488649


                     --------------------
                     INTERNAL COORDINATES
                     --------------------

                 - - ATOMS - -         COORDINATE      COORDINATE
 NO.   TYPE    I  J  K  L  M  N        (BOHR,RAD)       (ANG,DEG)
 ----------------------------------------------------------------
   1 STRETCH   1  3                     1.7963154       0.9505693
   2 STRETCH   1  2                     1.8158991       0.9609325
   3 BEND      2  1  3                  1.8669603     106.9689479

          INTERNUCLEAR DISTANCES (ANGS.)
          ------------------------------

                1 O          2 H          3 H     

   1 O       0.0000000    0.9609325 *  0.9505693 *
   2 H       0.9609325 *  0.0000000    1.5362780 *
   3 H       0.9505693 *  1.5362780 *  0.0000000  

  * ... LESS THAN  3.000

 ...... END OF ONE-ELECTRON INTEGRALS ......
 CPU     0: STEP CPU TIME=     0.00 TOTAL CPU TIME=          0.5 (      0.0 MIN)
 TOTAL WALL CLOCK TIME=          0.8 SECONDS, CPU UTILIZATION IS    59.69%
 TOTAL NUMBER OF NONZERO TWO-ELECTRON INTEGRALS =               34563
          8 INTEGRAL RECORDS WERE STORED ON DISK FILE 21.
  ...... END OF TWO-ELECTRON INTEGRALS .....
 CPU     0: STEP CPU TIME=     0.00 TOTAL CPU TIME=          0.5 (      0.0 MIN)
 TOTAL WALL CLOCK TIME=          0.9 SECONDS, CPU UTILIZATION IS    59.65%
 TOTAL NUMBER OF NONZERO TWO-ELECTRON INTEGRALS =               34641
          8 INTEGRAL RECORDS WERE STORED ON DISK FILE  8.
  ...... END OF TWO-ELECTRON INTEGRALS .....
 CPU     0: STEP CPU TIME=     0.00 TOTAL CPU TIME=          0.5 (      0.0 MIN)
 TOTAL WALL CLOCK TIME=          0.9 SECONDS, CPU UTILIZATION IS    59.64%

     ----------------------------
     INPUT FOR TESSERA DEFINITION
     ----------------------------
     NTSALL  =        60     MTHALL  =         4
     MTHAUT  =         0     AUTFRE  =    2.0000
     NTSFRZ  =        60     KEEPSM  =         0
     AREAKP  =   10.0000     BONDRY  =    1.0000
     AREATL  =    0.0100

     SPHERE     INITS       METHOD
          1        60       FIXPVA
          2        60       FIXPVA
          3        60       FIXPVA

     ------------------------------
      FIXPVA TESSELLATION FOR PCM
         PEIFENG SU AND HUI LI
     UNIVERSITY OF NEBRASKA-LINCOLN
     ------------------------------


     INPUT FOR CAVITY DEFINITION 
     ---------------------------
   ATOM               COORDINATES                RADIUS       EPS
      1      3.5492      2.8302     -4.6301      1.5000     78.3900
      2      3.0695      3.5153     -5.1034      1.2000     78.3900
      3      3.2530      2.8575     -3.7272      1.2000     78.3900

 MEMORY USED TO GENERATE CAVITY=    176782


 TOTAL NUMBER OF SPHERES=     3
 SPHERE           CENTER  (X,Y,Z) (A)               RADIUS (A)      AREA(A*A)
     1   3.549153804   2.830229879  -4.630087382   1.800000000  21.546075581
     2   3.069479835   3.515277556  -5.103388352   1.440000000  10.347928697
     3   3.252973299   2.857462718  -3.727248865   1.440000000   9.979102090

 TOTAL NUMBER OF TESSERAE=      88
 SURFACE AREA=    41.87310637(A**2)    CAVITY VOLUME=     28.09137672 (A**3)
 CPU     0: STEP CPU TIME=     0.00 TOTAL CPU TIME=          0.5 (      0.0 MIN)
 TOTAL WALL CLOCK TIME=          0.9 SECONDS, CPU UTILIZATION IS    59.69%

          THE SOLUTE IS ENCLOSED IN ONE CAVITY
 DONE CHECKING SEPARATION.
 CPU     0: STEP CPU TIME=     0.00 TOTAL CPU TIME=          0.5 (      0.0 MIN)
 TOTAL WALL CLOCK TIME=          0.9 SECONDS, CPU UTILIZATION IS    59.69%

 ..... DONE SETTING UP PCM CALCULATION .....
 CPU     0: STEP CPU TIME=     0.00 TOTAL CPU TIME=          0.5 (      0.0 MIN)
 TOTAL WALL CLOCK TIME=          0.9 SECONDS, CPU UTILIZATION IS    59.65%
 NUCLEI-NUCLEAR CHARGE POLARIZATION ADJUSTMENT TO VNN=        0.0000000000

          --------------------------
           R-WB97X-D SCF CALCULATION
          --------------------------
         DENSITY MATRIX CONVERGENCE THRESHOLD=  5.00E-05
     COARSE -> FINE DFT GRID SWITCH THRESHOLD=  1.50E-03 (SWITCH IN $DFT)
                   HF -> DFT SWITCH THRESHOLD=  5.00E-03 (SWOFF IN $DFT)

 ITER EX DEM     TOTAL ENERGY        E CHANGE  DENSITY CHANGE    DIIS ERROR      VIR. SHIFT       DAMPING
          * * *   INITIATING DIIS PROCEDURE   * * *
   1  0  0      -76.3413649925   -76.3413649925   0.012255362   0.015877773     0.000000000     1.000000000
   2  1  0      -76.3417298011    -0.0003648087   0.002492112   0.003383489     0.000000000     1.000000000
   3  2  0      -76.3417365339    -0.0000067328   0.001162953   0.003062385     0.000000000     1.000000000
   4  3  0      -76.3417454909    -0.0000089570   0.000246666   0.000311148     0.000000000     1.000000000
   5  4  0      -76.3417457251    -0.0000002342   0.000082198   0.000048513     0.000000000     1.000000000
   6  5  0      -76.3417457377    -0.0000000125   0.000014122   0.000007590     0.000000000     1.000000000
   7  6  0      -76.3417457378    -0.0000000002   0.000002715   0.000001304     0.000000000     1.000000000

          -----------------
          DENSITY CONVERGED
          -----------------
     TIME TO FORM FOCK OPERATORS=       0.2 SECONDS (       0.0 SEC/ITER)
     TIME TO SOLVE SCF EQUATIONS=       0.0 SECONDS (       0.0 SEC/ITER)

          ----------------------------
          DFT-D PARAMETERS AND RESULTS
          ----------------------------
 C6 COEFFICIENTS USED:
       1 C6 FOR ELEMENT   1
  Z=  1 C6(AA)=    2.43
       1 C6 FOR ELEMENT   8
  Z=  8 C6(AA)=   12.14

 #          XYZ [AU]             R0(AA) [ANG.]  CN         C6(AA)     C8(AA)   C10(AA) [AU]
  1   6.70693   5.34836  -8.74960    8  1.220  1.989        12.1       245.0      6057.3
  2   5.80048   6.64291  -9.64401    1  0.910  0.995         2.4        29.4       434.7
  3   6.14723   5.39982  -7.04348    1  0.910  0.996         2.4        29.4       434.7

     MOLECULAR C6(AA) [AU] =        43.57

           DFT-D V2

 FUNCTIONAL: WB97X-D 

 PARAMETERS
 S6       :    1.0000
 RS6      :    1.1000
 USING CHAI-HEAD-GORDON DAMPING FUNCTION
 ALPHA6   :    6.0000

 EDISP /KCAL,AU:    -0.0183 -0.00002910

 E6    /KCAL :    -0.0183

 FINAL R-WB97X-D ENERGY IS      -76.3417748354 AFTER   7 ITERATIONS
 DFT EXCHANGE + CORRELATION ENERGY =        -6.4588342623
 TOTAL ELECTRON NUMBER             =        10.0000091499
 GRIMME'S DISPERSION ENERGY                     =       -0.0000290976
 ENERGY WITHOUT GRIMME'S DISPERSION CORRECTION IS      -76.3417457378

 Alpha HOMO=   -11.143994 eV, LUMO=    3.801887 eV, gap=   14.945881 eV
  
   PCM ASC=     -0.0114700008
   GCAVP  =      0.0000000000
   GDISP  =      0.0000000000
   GREP   =      0.0000000000
 ...... END OF RHF CALCULATION ......
 CPU     0: STEP CPU TIME=     0.19 TOTAL CPU TIME=          0.7 (      0.0 MIN)
 TOTAL WALL CLOCK TIME=          1.1 SECONDS, CPU UTILIZATION IS    65.41%

 .... DONE WITH PCM CONTRIBUTION TO GRADIENT ....
 CPU     0: STEP CPU TIME=     0.00 TOTAL CPU TIME=          0.7 (      0.0 MIN)
 TOTAL WALL CLOCK TIME=          1.1 SECONDS, CPU UTILIZATION IS    65.44%

          ----------------------------
          DFT-D PARAMETERS AND RESULTS
          ----------------------------
 C6 COEFFICIENTS USED:
       1 C6 FOR ELEMENT   1
  Z=  1 C6(AA)=    2.43
       1 C6 FOR ELEMENT   8
  Z=  8 C6(AA)=   12.14

 #          XYZ [AU]             R0(AA) [ANG.]  CN         C6(AA)     C8(AA)   C10(AA) [AU]
  1   6.70693   5.34836  -8.74960    8  1.220  1.989        12.1       245.0      6057.3
  2   5.80048   6.64291  -9.64401    1  0.910  0.995         2.4        29.4       434.7
  3   6.14723   5.39982  -7.04348    1  0.910  0.996         2.4        29.4       434.7

     MOLECULAR C6(AA) [AU] =        43.57

           DFT-D V2

 FUNCTIONAL: WB97X-D 

 PARAMETERS
 S6       :    1.0000
 RS6      :    1.1000
 USING CHAI-HEAD-GORDON DAMPING FUNCTION
 ALPHA6   :    6.0000

 EDISP /KCAL,AU:    -0.0183 -0.00002910

 E6    /KCAL :    -0.0183
 ..... END OF 1-ELECTRON GRADIENT ......
 CPU     0: STEP CPU TIME=     0.01 TOTAL CPU TIME=          0.7 (      0.0 MIN)
 TOTAL WALL CLOCK TIME=          1.1 SECONDS, CPU UTILIZATION IS    65.66%
 MEMORY FOR GRID POINT CONTRIBUTIONS TO THE DFT GRADIENT=    136239 WORDS.
 CPU     0: STEP CPU TIME=     0.03 TOTAL CPU TIME=          0.7 (      0.0 MIN)
 TOTAL WALL CLOCK TIME=          1.1 SECONDS, CPU UTILIZATION IS    66.29%
 ...... END OF 2-ELECTRON GRADIENT ......
 CPU     0: STEP CPU TIME=     0.00 TOTAL CPU TIME=          0.7 (      0.0 MIN)
 TOTAL WALL CLOCK TIME=          1.1 SECONDS, CPU UTILIZATION IS    66.30%

          NSERCH=  1     ENERGY=     -76.3417748

                                 -----------------------
                                 GRADIENT (HARTREE/BOHR)
                                 -----------------------
        ATOM     ZNUC       DE/DX         DE/DY         DE/DZ
 --------------------------------------------------------------
    1  O            8.0    -0.0040956     0.0007210     0.0111466
    2  H            1.0     0.0003045    -0.0003506    -0.0002453
    3  H            1.0     0.0037911    -0.0003705    -0.0109013


                     --------------------
                     INTERNAL COORDINATES
                     --------------------

                 - - ATOMS - -         COORDINATE        GRADIENT
 NO.   TYPE    I  J  K  L  M  N         (ANG,DEG)     (H/B,H/RAD)
 ----------------------------------------------------------------
   1 SYM.CRD.                           1.6205257      -0.0049059
   2 SYM.CRD.                          -0.4199306       0.0060798
   3 SYM.CRD.                           0.0240620      -0.0085337

 NOTE: CARTESIAN GRADIENTS ARE ALWAYS TAKEN TO TEST CONVERGENCE,
       SO THE FOLLOWING GRADIENTS ARE CARTESIAN.

          MAXIMUM GRADIENT = 0.0110228    RMS GRADIENT = 0.0055021

 NSERCH:   1  E=      -76.3417748354  GRAD. MAX=  0.0110228  R.M.S.=  0.0055021

          HESSIAN UPDATED USING THE BFGS FORMULA
             ACTUAL ENERGY CHANGE WAS  -0.0004007254
          PREDICTED ENERGY CHANGE WAS  -0.0006928562 RATIO=  0.578
          MIN SEARCH, CORRECT HESSIAN, TRYING PURE NR STEP
               NR STEP HAS LENGTH         =   0.021343
          RADIUS OF STEP TAKEN=   0.02134  CURRENT TRUST RADIUS=   0.06732
          TRANSFORMING DISPLACEMENT FROM INTERNALS TO CARTESIANS
          THE ROOT MEAN SQUARE ERROR IN ITERATION   1 IS   0.00001232
          THE ROOT MEAN SQUARE ERROR IN ITERATION   2 IS   0.00000000

 BEGINNING GEOMETRY SEARCH POINT NSERCH=   2 ...

 COORDINATES OF ALL ATOMS ARE (ANGS)
   ATOM   CHARGE       X              Y              Z
 ------------------------------------------------------------
 O           8.0   3.5494387620   2.8301322062  -4.6307401841
 H           1.0   3.0688267899   3.5157876933  -5.1027568495
 H           1.0   3.2491038566   2.8585027234  -3.7175199273


                     --------------------
                     INTERNAL COORDINATES
                     --------------------

                 - - ATOMS - -         COORDINATE      COORDINATE
 NO.   TYPE    I  J  K  L  M  N        (BOHR,RAD)       (ANG,DEG)
 ----------------------------------------------------------------
   1 STRETCH   1  3                     1.8174578       0.9617573
   2 STRETCH   1  2                     1.8164101       0.9612029
   3 BEND      2  1  3                  1.8640846     106.8041778

          INTERNUCLEAR DISTANCES (ANGS.)
          ------------------------------

                1 O          2 H          3 H     

   1 O       0.0000000    0.9612029 *  0.9617573 *
   2 H       0.9612029 *  0.0000000    1.5438279 *
   3 H       0.9617573 *  1.5438279 *  0.0000000  

  * ... LESS THAN  3.000

 ...... END OF ONE-ELECTRON INTEGRALS ......
 CPU     0: STEP CPU TIME=     0.00 TOTAL CPU TIME=          0.7 (      0.0 MIN)
 TOTAL WALL CLOCK TIME=          1.1 SECONDS, CPU UTILIZATION IS    66.33%
 TOTAL NUMBER OF NONZERO TWO-ELECTRON INTEGRALS =               34562
          8 INTEGRAL RECORDS WERE STORED ON DISK FILE 21.
  ...... END OF TWO-ELECTRON INTEGRALS .....
 CPU     0: STEP CPU TIME=     0.00 TOTAL CPU TIME=          0.7 (      0.0 MIN)
 TOTAL WALL CLOCK TIME=          1.1 SECONDS, CPU UTILIZATION IS    66.32%
 TOTAL NUMBER OF NONZERO TWO-ELECTRON INTEGRALS =               34641
          8 INTEGRAL RECORDS WERE STORED ON DISK FILE  8.
  ...... END OF TWO-ELECTRON INTEGRALS .....
 CPU     0: STEP CPU TIME=     0.00 TOTAL CPU TIME=          0.7 (      0.0 MIN)
 TOTAL WALL CLOCK TIME=          1.1 SECONDS, CPU UTILIZATION IS    66.29%

     ----------------------------
     INPUT FOR TESSERA DEFINITION
     ----------------------------
     NTSALL  =        60     MTHALL  =         4
     MTHAUT  =         0     AUTFRE  =    2.0000
     NTSFRZ  =        60     KEEPSM  =         0
     AREAKP  =   10.0000     BONDRY  =    1.0000
     AREATL  =    0.0100

     SPHERE     INITS       METHOD
          1        60       FIXPVA
          2        60       FIXPVA
          3        60       FIXPVA

     ------------------------------
      FIXPVA TESSELLATION FOR PCM
         PEIFENG SU AND HUI LI
     UNIVERSITY OF NEBRASKA-LINCOLN
     ------------------------------


     INPUT FOR CAVITY DEFINITION 
     ---------------------------
   ATOM               COORDINATES                RADIUS       EPS
      1      3.5494      2.8301     -4.6307      1.5000     78.3900
      2      3.0688      3.5158     -5.1028      1.2000     78.3900
      3      3.2491      2.8585     -3.7175      1.2000     78.3900

 MEMORY USED TO GENERATE CAVITY=    176782


 TOTAL NUMBER OF SPHERES=     3
 SPHERE           CENTER  (X,Y,Z) (A)               RADIUS (A)      AREA(A*A)
     1   3.549438762   2.830132206  -4.630740184   1.800000000  21.535966224
     2   3.068826790   3.515787693  -5.102756849   1.440000000  10.344528415
     3   3.249103857   2.858502723  -3.717519927   1.440000000  10.074606105

 TOTAL NUMBER OF TESSERAE=      88
 SURFACE AREA=    41.95510074(A**2)    CAVITY VOLUME=     28.17247173 (A**3)
 CPU     0: STEP CPU TIME=     0.00 TOTAL CPU TIME=          0.7 (      0.0 MIN)
 TOTAL WALL CLOCK TIME=          1.1 SECONDS, CPU UTILIZATION IS    66.32%

          THE SOLUTE IS ENCLOSED IN ONE CAVITY
 DONE CHECKING SEPARATION.
 CPU     0: STEP CPU TIME=     0.00 TOTAL CPU TIME=          0.7 (      0.0 MIN)
 TOTAL WALL CLOCK TIME=          1.1 SECONDS, CPU UTILIZATION IS    66.32%

 ..... DONE SETTING UP PCM CALCULATION .....
 CPU     0: STEP CPU TIME=     0.00 TOTAL CPU TIME=          0.7 (      0.0 MIN)
 TOTAL WALL CLOCK TIME=          1.1 SECONDS, CPU UTILIZATION IS    66.30%
 NUCLEI-NUCLEAR CHARGE POLARIZATION ADJUSTMENT TO VNN=        0.0000000000

          --------------------------
           R-WB97X-D SCF CALCULATION
          --------------------------
         DENSITY MATRIX CONVERGENCE THRESHOLD=  5.00E-05
     COARSE -> FINE DFT GRID SWITCH THRESHOLD=  1.50E-03 (SWITCH IN $DFT)
                   HF -> DFT SWITCH THRESHOLD=  5.00E-03 (SWOFF IN $DFT)

 ITER EX DEM     TOTAL ENERGY        E CHANGE  DENSITY CHANGE    DIIS ERROR      VIR. SHIFT       DAMPING
          * * *   INITIATING DIIS PROCEDURE   * * *
   1  0  0      -76.3418161013   -76.3418161013   0.004442068   0.005094548     0.000000000     1.000000000
   2  1  0      -76.3418609436    -0.0000448423   0.000816244   0.001139355     0.000000000     1.000000000
   3  2  0      -76.3418619923    -0.0000010487   0.000394981   0.000995348     0.000000000     1.000000000
   4  3  0      -76.3418629896    -0.0000009973   0.000159578   0.000141016     0.000000000     1.000000000
   5  4  0      -76.3418630352    -0.0000000455   0.000051623   0.000023357     0.000000000     1.000000000
   6  5  0      -76.3418630373    -0.0000000021   0.000005302   0.000002713     0.000000000     1.000000000
   7  6  0      -76.3418630373    -0.0000000000   0.000000796   0.000000392     0.000000000     1.000000000

          -----------------
          DENSITY CONVERGED
          -----------------
     TIME TO FORM FOCK OPERATORS=       0.2 SECONDS (       0.0 SEC/ITER)
     TIME TO SOLVE SCF EQUATIONS=       0.0 SECONDS (       0.0 SEC/ITER)

          ----------------------------
          DFT-D PARAMETERS AND RESULTS
          ----------------------------
 C6 COEFFICIENTS USED:
       1 C6 FOR ELEMENT   1
  Z=  1 C6(AA)=    2.43
       1 C6 FOR ELEMENT   8
  Z=  8 C6(AA)=   12.14

 #          XYZ [AU]             R0(AA) [ANG.]  CN         C6(AA)     C8(AA)   C10(AA) [AU]
  1   6.70747   5.34817  -8.75083    8  1.220  1.988        12.1       245.0      6057.3
  2   5.79924   6.64388  -9.64281    1  0.910  0.995         2.4        29.4       434.7
  3   6.13992   5.40179  -7.02509    1  0.910  0.995         2.4        29.4       434.7

     MOLECULAR C6(AA) [AU] =        43.57

           DFT-D V2

 FUNCTIONAL: WB97X-D 

 PARAMETERS
 S6       :    1.0000
 RS6      :    1.1000
 USING CHAI-HEAD-GORDON DAMPING FUNCTION
 ALPHA6   :    6.0000

 EDISP /KCAL,AU:    -0.0188 -0.00002996

 E6    /KCAL :    -0.0188

 FINAL R-WB97X-D ENERGY IS      -76.3418929983 AFTER   7 ITERATIONS
 DFT EXCHANGE + CORRELATION ENERGY =        -6.4545888747
 TOTAL ELECTRON NUMBER             =        10.0000084804
 GRIMME'S DISPERSION ENERGY                     =       -0.0000299610
 ENERGY WITHOUT GRIMME'S DISPERSION CORRECTION IS      -76.3418630373

 Alpha HOMO=   -11.132160 eV, LUMO=    3.785491 eV, gap=   14.917651 eV
  
   PCM ASC=     -0.0115035170
   GCAVP  =      0.0000000000
   GDISP  =      0.0000000000
   GREP   =      0.0000000000
 ...... END OF RHF CALCULATION ......
 CPU     0: STEP CPU TIME=     0.17 TOTAL CPU TIME=          0.9 (      0.0 MIN)
 TOTAL WALL CLOCK TIME=          1.3 SECONDS, CPU UTILIZATION IS    69.32%

 .... DONE WITH PCM CONTRIBUTION TO GRADIENT ....
 CPU     0: STEP CPU TIME=     0.00 TOTAL CPU TIME=          0.9 (      0.0 MIN)
 TOTAL WALL CLOCK TIME=          1.3 SECONDS, CPU UTILIZATION IS    69.34%

          ----------------------------
          DFT-D PARAMETERS AND RESULTS
          ----------------------------
 C6 COEFFICIENTS USED:
       1 C6 FOR ELEMENT   1
  Z=  1 C6(AA)=    2.43
       1 C6 FOR ELEMENT   8
  Z=  8 C6(AA)=   12.14

 #          XYZ [AU]             R0(AA) [ANG.]  CN         C6(AA)     C8(AA)   C10(AA) [AU]
  1   6.70747   5.34817  -8.75083    8  1.220  1.988        12.1       245.0      6057.3
  2   5.79924   6.64388  -9.64281    1  0.910  0.995         2.4        29.4       434.7
  3   6.13992   5.40179  -7.02509    1  0.910  0.995         2.4        29.4       434.7

     MOLECULAR C6(AA) [AU] =        43.57

           DFT-D V2

 FUNCTIONAL: WB97X-D 

 PARAMETERS
 S6       :    1.0000
 RS6      :    1.1000
 USING CHAI-HEAD-GORDON DAMPING FUNCTION
 ALPHA6   :    6.0000

 EDISP /KCAL,AU:    -0.0188 -0.00002996

 E6    /KCAL :    -0.0188
 ..... END OF 1-ELECTRON GRADIENT ......
 CPU     0: STEP CPU TIME=     0.01 TOTAL CPU TIME=          0.9 (      0.0 MIN)
 TOTAL WALL CLOCK TIME=          1.3 SECONDS, CPU UTILIZATION IS    69.51%
 MEMORY FOR GRID POINT CONTRIBUTIONS TO THE DFT GRADIENT=    136239 WORDS.
 CPU     0: STEP CPU TIME=     0.02 TOTAL CPU TIME=          0.9 (      0.0 MIN)
 TOTAL WALL CLOCK TIME=          1.4 SECONDS, CPU UTILIZATION IS    69.95%
 ...... END OF 2-ELECTRON GRADIENT ......
 CPU     0: STEP CPU TIME=     0.00 TOTAL CPU TIME=          0.9 (      0.0 MIN)
 TOTAL WALL CLOCK TIME=          1.4 SECONDS, CPU UTILIZATION IS    69.94%

          NSERCH=  2     ENERGY=     -76.3418930

                                 -----------------------
                                 GRADIENT (HARTREE/BOHR)
                                 -----------------------
        ATOM     ZNUC       DE/DX         DE/DY         DE/DZ
 --------------------------------------------------------------
    1  O            8.0    -0.0004515     0.0004377    -0.0001751
    2  H            1.0     0.0003237    -0.0003502    -0.0002882
    3  H            1.0     0.0001278    -0.0000875     0.0004633


                     --------------------
                     INTERNAL COORDINATES
                     --------------------

                 - - ATOMS - -         COORDINATE        GRADIENT
 NO.   TYPE    I  J  K  L  M  N         (ANG,DEG)     (H/B,H/RAD)
 ----------------------------------------------------------------
   1 SYM.CRD.                           1.6245083       0.0005745
   2 SYM.CRD.                          -0.4264493       0.0003920
   3 SYM.CRD.                           0.0323811       0.0004274

 NOTE: CARTESIAN GRADIENTS ARE ALWAYS TAKEN TO TEST CONVERGENCE,
       SO THE FOLLOWING GRADIENTS ARE CARTESIAN.

          MAXIMUM GRADIENT = 0.0005433    RMS GRADIENT = 0.0003384

 NSERCH:   2  E=      -76.3418929983  GRAD. MAX=  0.0005433  R.M.S.=  0.0003384

          HESSIAN UPDATED USING THE BFGS FORMULA
             ACTUAL ENERGY CHANGE WAS  -0.0001181629
          PREDICTED ENERGY CHANGE WAS  -0.0001229862 RATIO=  0.961
          MIN SEARCH, CORRECT HESSIAN, TRYING PURE NR STEP
               NR STEP HAS LENGTH         =   0.003745
          RADIUS OF STEP TAKEN=   0.00374  CURRENT TRUST RADIUS=   0.05000
          TRANSFORMING DISPLACEMENT FROM INTERNALS TO CARTESIANS
          THE ROOT MEAN SQUARE ERROR IN ITERATION   1 IS   0.00000312
          THE ROOT MEAN SQUARE ERROR IN ITERATION   2 IS   0.00000000

 BEGINNING GEOMETRY SEARCH POINT NSERCH=   3 ...

 COORDINATES OF ALL ATOMS ARE (ANGS)
   ATOM   CHARGE       X              Y              Z
 ------------------------------------------------------------
 O           8.0   3.5495523619   2.8300186999  -4.6307752502
 H           1.0   3.0679197075   3.5163775064  -5.1015210387
 H           1.0   3.2482080266   2.8597143373  -3.7181992134


                     --------------------
                     INTERNAL COORDINATES
                     --------------------

                 - - ATOMS - -         COORDINATE      COORDINATE
 NO.   TYPE    I  J  K  L  M  N        (BOHR,RAD)       (ANG,DEG)
 ----------------------------------------------------------------
   1 STRETCH   1  3                     1.8169745       0.9615016
   2 STRETCH   1  2                     1.8171462       0.9615924
   3 BEND      2  1  3                  1.8604449     106.5956380

          INTERNUCLEAR DISTANCES (ANGS.)
          ------------------------------

                1 O          2 H          3 H     

   1 O       0.0000000    0.9615924 *  0.9615016 *
   2 H       0.9615924 *  0.0000000    1.5418462 *
   3 H       0.9615016 *  1.5418462 *  0.0000000  

  * ... LESS THAN  3.000

 ...... END OF ONE-ELECTRON INTEGRALS ......
 CPU     0: STEP CPU TIME=     0.00 TOTAL CPU TIME=          1.0 (      0.0 MIN)
 TOTAL WALL CLOCK TIME=          1.4 SECONDS, CPU UTILIZATION IS    69.97%
 TOTAL NUMBER OF NONZERO TWO-ELECTRON INTEGRALS =               34564
          8 INTEGRAL RECORDS WERE STORED ON DISK FILE 21.
  ...... END OF TWO-ELECTRON INTEGRALS .....
 CPU     0: STEP CPU TIME=     0.00 TOTAL CPU TIME=          1.0 (      0.0 MIN)
 TOTAL WALL CLOCK TIME=          1.4 SECONDS, CPU UTILIZATION IS    69.93%
 TOTAL NUMBER OF NONZERO TWO-ELECTRON INTEGRALS =               34641
          8 INTEGRAL RECORDS WERE STORED ON DISK FILE  8.
  ...... END OF TWO-ELECTRON INTEGRALS .....
 CPU     0: STEP CPU TIME=     0.00 TOTAL CPU TIME=          1.0 (      0.0 MIN)
 TOTAL WALL CLOCK TIME=          1.4 SECONDS, CPU UTILIZATION IS    69.90%

     ----------------------------
     INPUT FOR TESSERA DEFINITION
     ----------------------------
     NTSALL  =        60     MTHALL  =         4
     MTHAUT  =         0     AUTFRE  =    2.0000
     NTSFRZ  =        60     KEEPSM  =         0
     AREAKP  =   10.0000     BONDRY  =    1.0000
     AREATL  =    0.0100

     SPHERE     INITS       METHOD
          1        60       FIXPVA
          2        60       FIXPVA
          3        60       FIXPVA

     ------------------------------
      FIXPVA TESSELLATION FOR PCM
         PEIFENG SU AND HUI LI
     UNIVERSITY OF NEBRASKA-LINCOLN
     ------------------------------


     INPUT FOR CAVITY DEFINITION 
     ---------------------------
   ATOM               COORDINATES                RADIUS       EPS
      1      3.5496      2.8300     -4.6308      1.5000     78.3900
      2      3.0679      3.5164     -5.1015      1.2000     78.3900
      3      3.2482      2.8597     -3.7182      1.2000     78.3900

 MEMORY USED TO GENERATE CAVITY=    176782


 TOTAL NUMBER OF SPHERES=     3
 SPHERE           CENTER  (X,Y,Z) (A)               RADIUS (A)      AREA(A*A)
     1   3.549552362   2.830018700  -4.630775250   1.800000000  21.557835910
     2   3.067919707   3.516377506  -5.101521039   1.440000000  10.341334153
     3   3.248208027   2.859714337  -3.718199213   1.440000000  10.060437260

 TOTAL NUMBER OF TESSERAE=      88
 SURFACE AREA=    41.95960732(A**2)    CAVITY VOLUME=     28.14280461 (A**3)
 CPU     0: STEP CPU TIME=     0.00 TOTAL CPU TIME=          1.0 (      0.0 MIN)
 TOTAL WALL CLOCK TIME=          1.4 SECONDS, CPU UTILIZATION IS    69.93%

          THE SOLUTE IS ENCLOSED IN ONE CAVITY
 DONE CHECKING SEPARATION.
 CPU     0: STEP CPU TIME=     0.00 TOTAL CPU TIME=          1.0 (      0.0 MIN)
 TOTAL WALL CLOCK TIME=          1.4 SECONDS, CPU UTILIZATION IS    69.93%

 ..... DONE SETTING UP PCM CALCULATION .....
 CPU     0: STEP CPU TIME=     0.00 TOTAL CPU TIME=          1.0 (      0.0 MIN)
 TOTAL WALL CLOCK TIME=          1.4 SECONDS, CPU UTILIZATION IS    69.91%
 NUCLEI-NUCLEAR CHARGE POLARIZATION ADJUSTMENT TO VNN=        0.0000000000

          --------------------------
           R-WB97X-D SCF CALCULATION
          --------------------------
         DENSITY MATRIX CONVERGENCE THRESHOLD=  1.00E-05
     COARSE -> FINE DFT GRID SWITCH THRESHOLD=  3.00E-04 (SWITCH IN $DFT)
                   HF -> DFT SWITCH THRESHOLD=  5.00E-03 (SWOFF IN $DFT)

 ITER EX DEM     TOTAL ENERGY        E CHANGE  DENSITY CHANGE    DIIS ERROR      VIR. SHIFT       DAMPING
          * * *   INITIATING DIIS PROCEDURE   * * *
   1  0  0      -76.3418640967   -76.3418640967   0.000615241   0.000900109     0.000000000     1.000000000
   2  1  0      -76.3418649229    -0.0000008262   0.000153744   0.000084745     0.000000000     1.000000000
   3  2  0      -76.3418649458    -0.0000000229   0.000029101   0.000019891     0.000000000     1.000000000
   4  3  0      -76.3418649464    -0.0000000006   0.000006273   0.000015719     0.000000000     1.000000000
   5  4  0      -76.3418649467    -0.0000000003   0.000003873   0.000002191     0.000000000     1.000000000

          -----------------
          DENSITY CONVERGED
          -----------------
     TIME TO FORM FOCK OPERATORS=       0.1 SECONDS (       0.0 SEC/ITER)
     TIME TO SOLVE SCF EQUATIONS=       0.0 SECONDS (       0.0 SEC/ITER)

          ----------------------------
          DFT-D PARAMETERS AND RESULTS
          ----------------------------
 C6 COEFFICIENTS USED:
       1 C6 FOR ELEMENT   1
  Z=  1 C6(AA)=    2.43
       1 C6 FOR ELEMENT   8
  Z=  8 C6(AA)=   12.14

 #          XYZ [AU]             R0(AA) [ANG.]  CN         C6(AA)     C8(AA)   C10(AA) [AU]
  1   6.70768   5.34796  -8.75090    8  1.220  1.988        12.1       245.0      6057.3
  2   5.79753   6.64499  -9.64048    1  0.910  0.995         2.4        29.4       434.7
  3   6.13822   5.40408  -7.02638    1  0.910  0.995         2.4        29.4       434.7

     MOLECULAR C6(AA) [AU] =        43.57

           DFT-D V2

 FUNCTIONAL: WB97X-D 

 PARAMETERS
 S6       :    1.0000
 RS6      :    1.1000
 USING CHAI-HEAD-GORDON DAMPING FUNCTION
 ALPHA6   :    6.0000

 EDISP /KCAL,AU:    -0.0187 -0.00002974

 E6    /KCAL :    -0.0187

 FINAL R-WB97X-D ENERGY IS      -76.3418946902 AFTER   5 ITERATIONS
 DFT EXCHANGE + CORRELATION ENERGY =        -6.4545713279
 TOTAL ELECTRON NUMBER             =        10.0000084436
 GRIMME'S DISPERSION ENERGY                     =       -0.0000297435
 ENERGY WITHOUT GRIMME'S DISPERSION CORRECTION IS      -76.3418649467

 Alpha HOMO=   -11.133074 eV, LUMO=    3.783208 eV, gap=   14.916282 eV
  
   PCM ASC=     -0.0114748578
   GCAVP  =      0.0000000000
   GDISP  =      0.0000000000
   GREP   =      0.0000000000
 ...... END OF RHF CALCULATION ......
 CPU     0: STEP CPU TIME=     0.12 TOTAL CPU TIME=          1.1 (      0.0 MIN)
 TOTAL WALL CLOCK TIME=          1.5 SECONDS, CPU UTILIZATION IS    71.33%

 .... DONE WITH PCM CONTRIBUTION TO GRADIENT ....
 CPU     0: STEP CPU TIME=     0.00 TOTAL CPU TIME=          1.1 (      0.0 MIN)
 TOTAL WALL CLOCK TIME=          1.5 SECONDS, CPU UTILIZATION IS    71.35%

          ----------------------------
          DFT-D PARAMETERS AND RESULTS
          ----------------------------
 C6 COEFFICIENTS USED:
       1 C6 FOR ELEMENT   1
  Z=  1 C6(AA)=    2.43
       1 C6 FOR ELEMENT   8
  Z=  8 C6(AA)=   12.14

 #          XYZ [AU]             R0(AA) [ANG.]  CN         C6(AA)     C8(AA)   C10(AA) [AU]
  1   6.70768   5.34796  -8.75090    8  1.220  1.988        12.1       245.0      6057.3
  2   5.79753   6.64499  -9.64048    1  0.910  0.995         2.4        29.4       434.7
  3   6.13822   5.40408  -7.02638    1  0.910  0.995         2.4        29.4       434.7

     MOLECULAR C6(AA) [AU] =        43.57

           DFT-D V2

 FUNCTIONAL: WB97X-D 

 PARAMETERS
 S6       :    1.0000
 RS6      :    1.1000
 USING CHAI-HEAD-GORDON DAMPING FUNCTION
 ALPHA6   :    6.0000

 EDISP /KCAL,AU:    -0.0187 -0.00002974

 E6    /KCAL :    -0.0187
 ..... END OF 1-ELECTRON GRADIENT ......
 CPU     0: STEP CPU TIME=     0.01 TOTAL CPU TIME=          1.1 (      0.0 MIN)
 TOTAL WALL CLOCK TIME=          1.5 SECONDS, CPU UTILIZATION IS    71.31%
 MEMORY FOR GRID POINT CONTRIBUTIONS TO THE DFT GRADIENT=    136239 WORDS.
 CPU     0: STEP CPU TIME=     0.03 TOTAL CPU TIME=          1.1 (      0.0 MIN)
 TOTAL WALL CLOCK TIME=          1.5 SECONDS, CPU UTILIZATION IS    71.74%
 ...... END OF 2-ELECTRON GRADIENT ......
 CPU     0: STEP CPU TIME=     0.00 TOTAL CPU TIME=          1.1 (      0.0 MIN)
 TOTAL WALL CLOCK TIME=          1.5 SECONDS, CPU UTILIZATION IS    71.73%

          NSERCH=  3     ENERGY=     -76.3418947

                                 -----------------------
                                 GRADIENT (HARTREE/BOHR)
                                 -----------------------
        ATOM     ZNUC       DE/DX         DE/DY         DE/DZ
 --------------------------------------------------------------
    1  O            8.0    -0.0001060    -0.0000596     0.0001510
    2  H            1.0     0.0000343    -0.0000510    -0.0002120
    3  H            1.0     0.0000717     0.0001107     0.0000610


                     --------------------
                     INTERNAL COORDINATES
                     --------------------

                 - - ATOMS - -         COORDINATE        GRADIENT
 NO.   TYPE    I  J  K  L  M  N         (ANG,DEG)     (H/B,H/RAD)
 ----------------------------------------------------------------
   1 SYM.CRD.                           1.6230758       0.0001682
   2 SYM.CRD.                          -0.4277773       0.0000544
   3 SYM.CRD.                           0.0320473      -0.0000228

 NOTE: CARTESIAN GRADIENTS ARE ALWAYS TAKEN TO TEST CONVERGENCE,
       SO THE FOLLOWING GRADIENTS ARE CARTESIAN.

          MAXIMUM GRADIENT = 0.0001048    RMS GRADIENT = 0.0000577

 NSERCH:   3  E=      -76.3418946902  GRAD. MAX=  0.0001048  R.M.S.=  0.0000577

          HESSIAN UPDATED USING THE BFGS FORMULA
             ACTUAL ENERGY CHANGE WAS  -0.0000016919
          PREDICTED ENERGY CHANGE WAS  -0.0000014041 RATIO=  1.205
          MIN SEARCH, CORRECT HESSIAN, TRYING PURE NR STEP
               NR STEP HAS LENGTH         =   0.001262
          RADIUS OF STEP TAKEN=   0.00126  CURRENT TRUST RADIUS=   0.05000
          TRANSFORMING DISPLACEMENT FROM INTERNALS TO CARTESIANS
          THE ROOT MEAN SQUARE ERROR IN ITERATION   1 IS   0.00000043
          THE ROOT MEAN SQUARE ERROR IN ITERATION   2 IS   0.00000000

 BEGINNING GEOMETRY SEARCH POINT NSERCH=   4 ...

 COORDINATES OF ALL ATOMS ARE (ANGS)
   ATOM   CHARGE       X              Y              Z
 ------------------------------------------------------------
 O           8.0   3.5495861924   2.8299889639  -4.6307979733
 H           1.0   3.0677134383   3.5164284215  -5.1009887526
 H           1.0   3.2478773806   2.8601353542  -3.7183708677


                     --------------------
                     INTERNAL COORDINATES
                     --------------------

                 - - ATOMS - -         COORDINATE      COORDINATE
 NO.   TYPE    I  J  K  L  M  N        (BOHR,RAD)       (ANG,DEG)
 ----------------------------------------------------------------
   1 STRETCH   1  3                     1.8169499       0.9614886
   2 STRETCH   1  2                     1.8169692       0.9614988
   3 BEND      2  1  3                  1.8591956     106.5240604

          INTERNUCLEAR DISTANCES (ANGS.)
          ------------------------------

                1 O          2 H          3 H     

   1 O       0.0000000    0.9614988 *  0.9614886 *
   2 H       0.9614988 *  0.0000000    1.5410425 *
   3 H       0.9614886 *  1.5410425 *  0.0000000  

  * ... LESS THAN  3.000

 ...... END OF ONE-ELECTRON INTEGRALS ......
 CPU     0: STEP CPU TIME=     0.00 TOTAL CPU TIME=          1.1 (      0.0 MIN)
 TOTAL WALL CLOCK TIME=          1.5 SECONDS, CPU UTILIZATION IS    71.75%
 TOTAL NUMBER OF NONZERO TWO-ELECTRON INTEGRALS =               34564
          8 INTEGRAL RECORDS WERE STORED ON DISK FILE 21.
  ...... END OF TWO-ELECTRON INTEGRALS .....
 CPU     0: STEP CPU TIME=     0.00 TOTAL CPU TIME=          1.1 (      0.0 MIN)
 TOTAL WALL CLOCK TIME=          1.6 SECONDS, CPU UTILIZATION IS    71.75%
 TOTAL NUMBER OF NONZERO TWO-ELECTRON INTEGRALS =               34641
          8 INTEGRAL RECORDS WERE STORED ON DISK FILE  8.
  ...... END OF TWO-ELECTRON INTEGRALS .....
 CPU     0: STEP CPU TIME=     0.00 TOTAL CPU TIME=          1.1 (      0.0 MIN)
 TOTAL WALL CLOCK TIME=          1.6 SECONDS, CPU UTILIZATION IS    71.74%

     ----------------------------
     INPUT FOR TESSERA DEFINITION
     ----------------------------
     NTSALL  =        60     MTHALL  =         4
     MTHAUT  =         0     AUTFRE  =    2.0000
     NTSFRZ  =        60     KEEPSM  =         0
     AREAKP  =   10.0000     BONDRY  =    1.0000
     AREATL  =    0.0100

     SPHERE     INITS       METHOD
          1        60       FIXPVA
          2        60       FIXPVA
          3        60       FIXPVA

     ------------------------------
      FIXPVA TESSELLATION FOR PCM
         PEIFENG SU AND HUI LI
     UNIVERSITY OF NEBRASKA-LINCOLN
     ------------------------------


     INPUT FOR CAVITY DEFINITION 
     ---------------------------
   ATOM               COORDINATES                RADIUS       EPS
      1      3.5496      2.8300     -4.6308      1.5000     78.3900
      2      3.0677      3.5164     -5.1010      1.2000     78.3900
      3      3.2479      2.8601     -3.7184      1.2000     78.3900

 MEMORY USED TO GENERATE CAVITY=    176782


 TOTAL NUMBER OF SPHERES=     3
 SPHERE           CENTER  (X,Y,Z) (A)               RADIUS (A)      AREA(A*A)
     1   3.549586192   2.829988964  -4.630797973   1.800000000  21.564951632
     2   3.067713438   3.516428421  -5.100988753   1.440000000  10.338741144
     3   3.247877381   2.860135354  -3.718370868   1.440000000  10.056328392

 TOTAL NUMBER OF TESSERAE=      88
 SURFACE AREA=    41.96002117(A**2)    CAVITY VOLUME=     28.13090488 (A**3)
 CPU     0: STEP CPU TIME=     0.00 TOTAL CPU TIME=          1.1 (      0.0 MIN)
 TOTAL WALL CLOCK TIME=          1.6 SECONDS, CPU UTILIZATION IS    71.75%

          THE SOLUTE IS ENCLOSED IN ONE CAVITY
 DONE CHECKING SEPARATION.
 CPU     0: STEP CPU TIME=     0.00 TOTAL CPU TIME=          1.1 (      0.0 MIN)
 TOTAL WALL CLOCK TIME=          1.6 SECONDS, CPU UTILIZATION IS    71.76%

 ..... DONE SETTING UP PCM CALCULATION .....
 CPU     0: STEP CPU TIME=     0.00 TOTAL CPU TIME=          1.1 (      0.0 MIN)
 TOTAL WALL CLOCK TIME=          1.6 SECONDS, CPU UTILIZATION IS    71.74%
 NUCLEI-NUCLEAR CHARGE POLARIZATION ADJUSTMENT TO VNN=        0.0000000000

          --------------------------
           R-WB97X-D SCF CALCULATION
          --------------------------
         DENSITY MATRIX CONVERGENCE THRESHOLD=  1.00E-05
     COARSE -> FINE DFT GRID SWITCH THRESHOLD=  3.00E-04 (SWITCH IN $DFT)
                   HF -> DFT SWITCH THRESHOLD=  5.00E-03 (SWOFF IN $DFT)

 ITER EX DEM     TOTAL ENERGY        E CHANGE  DENSITY CHANGE    DIIS ERROR      VIR. SHIFT       DAMPING
          * * *   INITIATING DIIS PROCEDURE   * * *
   1  0  0      -76.3418650367   -76.3418650367   0.000166507   0.000302531     0.000000000     1.000000000
   2  1  0      -76.3418651264    -0.0000000897   0.000046387   0.000028782     0.000000000     1.000000000
   3  2  0      -76.3418651284    -0.0000000020   0.000006191   0.000013546     0.000000000     1.000000000
   4  3  0      -76.3418651287    -0.0000000002   0.000004602   0.000005135     0.000000000     1.000000000

          -----------------
          DENSITY CONVERGED
          -----------------
     TIME TO FORM FOCK OPERATORS=       0.1 SECONDS (       0.0 SEC/ITER)
     TIME TO SOLVE SCF EQUATIONS=       0.0 SECONDS (       0.0 SEC/ITER)

          ----------------------------
          DFT-D PARAMETERS AND RESULTS
          ----------------------------
 C6 COEFFICIENTS USED:
       1 C6 FOR ELEMENT   1
  Z=  1 C6(AA)=    2.43
       1 C6 FOR ELEMENT   8
  Z=  8 C6(AA)=   12.14

 #          XYZ [AU]             R0(AA) [ANG.]  CN         C6(AA)     C8(AA)   C10(AA) [AU]
  1   6.70775   5.34790  -8.75094    8  1.220  1.988        12.1       245.0      6057.3
  2   5.79714   6.64509  -9.63947    1  0.910  0.995         2.4        29.4       434.7
  3   6.13760   5.40487  -7.02670    1  0.910  0.995         2.4        29.4       434.7

     MOLECULAR C6(AA) [AU] =        43.57

           DFT-D V2

 FUNCTIONAL: WB97X-D 

 PARAMETERS
 S6       :    1.0000
 RS6      :    1.1000
 USING CHAI-HEAD-GORDON DAMPING FUNCTION
 ALPHA6   :    6.0000

 EDISP /KCAL,AU:    -0.0186 -0.00002966

 E6    /KCAL :    -0.0186

 FINAL R-WB97X-D ENERGY IS      -76.3418947837 AFTER   4 ITERATIONS
 DFT EXCHANGE + CORRELATION ENERGY =        -6.4546231723
 TOTAL ELECTRON NUMBER             =        10.0000084125
 GRIMME'S DISPERSION ENERGY                     =       -0.0000296551
 ENERGY WITHOUT GRIMME'S DISPERSION CORRECTION IS      -76.3418651287

 Alpha HOMO=   -11.133551 eV, LUMO=    3.782630 eV, gap=   14.916181 eV
  
   PCM ASC=     -0.0114643668
   GCAVP  =      0.0000000000
   GDISP  =      0.0000000000
   GREP   =      0.0000000000
 ...... END OF RHF CALCULATION ......
 CPU     0: STEP CPU TIME=     0.11 TOTAL CPU TIME=          1.2 (      0.0 MIN)
 TOTAL WALL CLOCK TIME=          1.7 SECONDS, CPU UTILIZATION IS    72.82%

 .... DONE WITH PCM CONTRIBUTION TO GRADIENT ....
 CPU     0: STEP CPU TIME=     0.00 TOTAL CPU TIME=          1.2 (      0.0 MIN)
 TOTAL WALL CLOCK TIME=          1.7 SECONDS, CPU UTILIZATION IS    72.84%

          ----------------------------
          DFT-D PARAMETERS AND RESULTS
          ----------------------------
 C6 COEFFICIENTS USED:
       1 C6 FOR ELEMENT   1
  Z=  1 C6(AA)=    2.43
       1 C6 FOR ELEMENT   8
  Z=  8 C6(AA)=   12.14

 #          XYZ [AU]             R0(AA) [ANG.]  CN         C6(AA)     C8(AA)   C10(AA) [AU]
  1   6.70775   5.34790  -8.75094    8  1.220  1.988        12.1       245.0      6057.3
  2   5.79714   6.64509  -9.63947    1  0.910  0.995         2.4        29.4       434.7
  3   6.13760   5.40487  -7.02670    1  0.910  0.995         2.4        29.4       434.7

     MOLECULAR C6(AA) [AU] =        43.57

           DFT-D V2

 FUNCTIONAL: WB97X-D 

 PARAMETERS
 S6       :    1.0000
 RS6      :    1.1000
 USING CHAI-HEAD-GORDON DAMPING FUNCTION
 ALPHA6   :    6.0000

 EDISP /KCAL,AU:    -0.0186 -0.00002966

 E6    /KCAL :    -0.0186
 ..... END OF 1-ELECTRON GRADIENT ......
 CPU     0: STEP CPU TIME=     0.01 TOTAL CPU TIME=          1.2 (      0.0 MIN)
 TOTAL WALL CLOCK TIME=          1.7 SECONDS, CPU UTILIZATION IS    72.97%
 MEMORY FOR GRID POINT CONTRIBUTIONS TO THE DFT GRADIENT=    136239 WORDS.
 CPU     0: STEP CPU TIME=     0.02 TOTAL CPU TIME=          1.3 (      0.0 MIN)
 TOTAL WALL CLOCK TIME=          1.7 SECONDS, CPU UTILIZATION IS    73.27%
 ...... END OF 2-ELECTRON GRADIENT ......
 CPU     0: STEP CPU TIME=     0.00 TOTAL CPU TIME=          1.3 (      0.0 MIN)
 TOTAL WALL CLOCK TIME=          1.7 SECONDS, CPU UTILIZATION IS    73.28%

          NSERCH=  4     ENERGY=     -76.3418948

                                 -----------------------
                                 GRADIENT (HARTREE/BOHR)
                                 -----------------------
        ATOM     ZNUC       DE/DX         DE/DY         DE/DZ
 --------------------------------------------------------------
    1  O            8.0    -0.0000766    -0.0000670     0.0000665
    2  H            1.0     0.0000511    -0.0001164    -0.0000656
    3  H            1.0     0.0000254     0.0001834    -0.0000009


                     --------------------
                     INTERNAL COORDINATES
                     --------------------

                 - - ATOMS - -         COORDINATE        GRADIENT
 NO.   TYPE    I  J  K  L  M  N         (ANG,DEG)     (H/B,H/RAD)
 ----------------------------------------------------------------
   1 SYM.CRD.                           1.6225166      -0.0000458
   2 SYM.CRD.                          -0.4281308       0.0000389
   3 SYM.CRD.                           0.0321383       0.0000397

 NOTE: CARTESIAN GRADIENTS ARE ALWAYS TAKEN TO TEST CONVERGENCE,
       SO THE FOLLOWING GRADIENTS ARE CARTESIAN.

          MAXIMUM GRADIENT = 0.0000483    RMS GRADIENT = 0.0000312

 NSERCH:   4  E=      -76.3418947837  GRAD. MAX=  0.0000483  R.M.S.=  0.0000312

          HESSIAN UPDATED USING THE BFGS FORMULA
             ACTUAL ENERGY CHANGE WAS  -0.0000000936
          PREDICTED ENERGY CHANGE WAS  -0.0000001090 RATIO=  0.858
          MIN SEARCH, CORRECT HESSIAN, TRYING PURE NR STEP
               NR STEP HAS LENGTH         =   0.000166
          RADIUS OF STEP TAKEN=   0.00017  CURRENT TRUST RADIUS=   0.05000
          TRANSFORMING DISPLACEMENT FROM INTERNALS TO CARTESIANS
          THE ROOT MEAN SQUARE ERROR IN ITERATION   1 IS   0.00000000

 BEGINNING GEOMETRY SEARCH POINT NSERCH=   5 ...

 COORDINATES OF ALL ATOMS ARE (ANGS)
   ATOM   CHARGE       X              Y              Z
 ------------------------------------------------------------
 O           8.0   3.5495873684   2.8299867725  -4.6307952672
 H           1.0   3.0676840612   3.5164803179  -5.1010477598
 H           1.0   3.2478880947   2.8601182355  -3.7183548083


                     --------------------
                     INTERNAL COORDINATES
                     --------------------

                 - - ATOMS - -         COORDINATE      COORDINATE
 NO.   TYPE    I  J  K  L  M  N        (BOHR,RAD)       (ANG,DEG)
 ----------------------------------------------------------------
   1 STRETCH   1  3                     1.8169673       0.9614978
   2 STRETCH   1  2                     1.8171281       0.9615829
   3 BEND      2  1  3                  1.8592419     106.5267149

          INTERNUCLEAR DISTANCES (ANGS.)
          ------------------------------

                1 O          2 H          3 H     

   1 O       0.0000000    0.9615829 *  0.9614978 *
   2 H       0.9615829 *  0.0000000    1.5411439 *
   3 H       0.9614978 *  1.5411439 *  0.0000000  

  * ... LESS THAN  3.000

 ...... END OF ONE-ELECTRON INTEGRALS ......
 CPU     0: STEP CPU TIME=     0.00 TOTAL CPU TIME=          1.3 (      0.0 MIN)
 TOTAL WALL CLOCK TIME=          1.7 SECONDS, CPU UTILIZATION IS    73.29%
 TOTAL NUMBER OF NONZERO TWO-ELECTRON INTEGRALS =               34564
          8 INTEGRAL RECORDS WERE STORED ON DISK FILE 21.
  ...... END OF TWO-ELECTRON INTEGRALS .....
 CPU     0: STEP CPU TIME=     0.00 TOTAL CPU TIME=          1.3 (      0.0 MIN)
 TOTAL WALL CLOCK TIME=          1.7 SECONDS, CPU UTILIZATION IS    73.26%
 TOTAL NUMBER OF NONZERO TWO-ELECTRON INTEGRALS =               34641
          8 INTEGRAL RECORDS WERE STORED ON DISK FILE  8.
  ...... END OF TWO-ELECTRON INTEGRALS .....
 CPU     0: STEP CPU TIME=     0.00 TOTAL CPU TIME=          1.3 (      0.0 MIN)
 TOTAL WALL CLOCK TIME=          1.7 SECONDS, CPU UTILIZATION IS    73.22%

     ----------------------------
     INPUT FOR TESSERA DEFINITION
     ----------------------------
     NTSALL  =        60     MTHALL  =         4
     MTHAUT  =         0     AUTFRE  =    2.0000
     NTSFRZ  =        60     KEEPSM  =         0
     AREAKP  =   10.0000     BONDRY  =    1.0000
     AREATL  =    0.0100

     SPHERE     INITS       METHOD
          1        60       FIXPVA
          2        60       FIXPVA
          3        60       FIXPVA

     ------------------------------
      FIXPVA TESSELLATION FOR PCM
         PEIFENG SU AND HUI LI
     UNIVERSITY OF NEBRASKA-LINCOLN
     ------------------------------


     INPUT FOR CAVITY DEFINITION 
     ---------------------------
   ATOM               COORDINATES                RADIUS       EPS
      1      3.5496      2.8300     -4.6308      1.5000     78.3900
      2      3.0677      3.5165     -5.1010      1.2000     78.3900
      3      3.2479      2.8601     -3.7184      1.2000     78.3900

 MEMORY USED TO GENERATE CAVITY=    176782


 TOTAL NUMBER OF SPHERES=     3
 SPHERE           CENTER  (X,Y,Z) (A)               RADIUS (A)      AREA(A*A)
     1   3.549587368   2.829986773  -4.630795267   1.800000000  21.564687642
     2   3.067684061   3.516480318  -5.101047760   1.440000000  10.339349987
     3   3.247888095   2.860118236  -3.718354808   1.440000000  10.056552476

 TOTAL NUMBER OF TESSERAE=      88
 SURFACE AREA=    41.96059010(A**2)    CAVITY VOLUME=     28.13230943 (A**3)
 CPU     0: STEP CPU TIME=     0.00 TOTAL CPU TIME=          1.3 (      0.0 MIN)
 TOTAL WALL CLOCK TIME=          1.7 SECONDS, CPU UTILIZATION IS    73.23%

          THE SOLUTE IS ENCLOSED IN ONE CAVITY
 DONE CHECKING SEPARATION.
 CPU     0: STEP CPU TIME=     0.00 TOTAL CPU TIME=          1.3 (      0.0 MIN)
 TOTAL WALL CLOCK TIME=          1.7 SECONDS, CPU UTILIZATION IS    73.23%

 ..... DONE SETTING UP PCM CALCULATION .....
 CPU     0: STEP CPU TIME=     0.00 TOTAL CPU TIME=          1.3 (      0.0 MIN)
 TOTAL WALL CLOCK TIME=          1.7 SECONDS, CPU UTILIZATION IS    73.22%
 NUCLEI-NUCLEAR CHARGE POLARIZATION ADJUSTMENT TO VNN=        0.0000000000

          --------------------------
           R-WB97X-D SCF CALCULATION
          --------------------------
         DENSITY MATRIX CONVERGENCE THRESHOLD=  1.00E-05
     COARSE -> FINE DFT GRID SWITCH THRESHOLD=  3.00E-04 (SWITCH IN $DFT)
                   HF -> DFT SWITCH THRESHOLD=  5.00E-03 (SWOFF IN $DFT)

 ITER EX DEM     TOTAL ENERGY        E CHANGE  DENSITY CHANGE    DIIS ERROR      VIR. SHIFT       DAMPING
          * * *   INITIATING DIIS PROCEDURE   * * *
   1  0  0      -76.3418651194   -76.3418651194   0.000033635   0.000045475     0.000000000     1.000000000
   2  1  0      -76.3418651219    -0.0000000025   0.000005672   0.000009300     0.000000000     1.000000000
   3  2  0      -76.3418651220    -0.0000000001   0.000003249   0.000008163     0.000000000     1.000000000

          -----------------
          DENSITY CONVERGED
          -----------------
     TIME TO FORM FOCK OPERATORS=       0.1 SECONDS (       0.0 SEC/ITER)
     TIME TO SOLVE SCF EQUATIONS=       0.0 SECONDS (       0.0 SEC/ITER)

          ----------------------------
          DFT-D PARAMETERS AND RESULTS
          ----------------------------
 C6 COEFFICIENTS USED:
       1 C6 FOR ELEMENT   1
  Z=  1 C6(AA)=    2.43
       1 C6 FOR ELEMENT   8
  Z=  8 C6(AA)=   12.14

 #          XYZ [AU]             R0(AA) [ANG.]  CN         C6(AA)     C8(AA)   C10(AA) [AU]
  1   6.70775   5.34790  -8.75093    8  1.220  1.988        12.1       245.0      6057.3
  2   5.79708   6.64518  -9.63958    1  0.910  0.995         2.4        29.4       434.7
  3   6.13762   5.40484  -7.02667    1  0.910  0.995         2.4        29.4       434.7

     MOLECULAR C6(AA) [AU] =        43.57

           DFT-D V2

 FUNCTIONAL: WB97X-D 

 PARAMETERS
 S6       :    1.0000
 RS6      :    1.1000
 USING CHAI-HEAD-GORDON DAMPING FUNCTION
 ALPHA6   :    6.0000

 EDISP /KCAL,AU:    -0.0186 -0.00002967

 E6    /KCAL :    -0.0186

 FINAL R-WB97X-D ENERGY IS      -76.3418947885 AFTER   3 ITERATIONS
 DFT EXCHANGE + CORRELATION ENERGY =        -6.4545913665
 TOTAL ELECTRON NUMBER             =        10.0000084173
 GRIMME'S DISPERSION ENERGY                     =       -0.0000296665
 ENERGY WITHOUT GRIMME'S DISPERSION CORRECTION IS      -76.3418651220

 Alpha HOMO=   -11.133425 eV, LUMO=    3.782534 eV, gap=   14.915959 eV
  
   PCM ASC=     -0.0114649679
   GCAVP  =      0.0000000000
   GDISP  =      0.0000000000
   GREP   =      0.0000000000
 ...... END OF RHF CALCULATION ......
 CPU     0: STEP CPU TIME=     0.08 TOTAL CPU TIME=          1.3 (      0.0 MIN)
 TOTAL WALL CLOCK TIME=          1.8 SECONDS, CPU UTILIZATION IS    73.95%

 .... DONE WITH PCM CONTRIBUTION TO GRADIENT ....
 CPU     0: STEP CPU TIME=     0.00 TOTAL CPU TIME=          1.3 (      0.0 MIN)
 TOTAL WALL CLOCK TIME=          1.8 SECONDS, CPU UTILIZATION IS    73.96%

          ----------------------------
          DFT-D PARAMETERS AND RESULTS
          ----------------------------
 C6 COEFFICIENTS USED:
       1 C6 FOR ELEMENT   1
  Z=  1 C6(AA)=    2.43
       1 C6 FOR ELEMENT   8
  Z=  8 C6(AA)=   12.14

 #          XYZ [AU]             R0(AA) [ANG.]  CN         C6(AA)     C8(AA)   C10(AA) [AU]
  1   6.70775   5.34790  -8.75093    8  1.220  1.988        12.1       245.0      6057.3
  2   5.79708   6.64518  -9.63958    1  0.910  0.995         2.4        29.4       434.7
  3   6.13762   5.40484  -7.02667    1  0.910  0.995         2.4        29.4       434.7

     MOLECULAR C6(AA) [AU] =        43.57

           DFT-D V2

 FUNCTIONAL: WB97X-D 

 PARAMETERS
 S6       :    1.0000
 RS6      :    1.1000
 USING CHAI-HEAD-GORDON DAMPING FUNCTION
 ALPHA6   :    6.0000

 EDISP /KCAL,AU:    -0.0186 -0.00002967

 E6    /KCAL :    -0.0186
 ..... END OF 1-ELECTRON GRADIENT ......
 CPU     0: STEP CPU TIME=     0.01 TOTAL CPU TIME=          1.4 (      0.0 MIN)
 TOTAL WALL CLOCK TIME=          1.8 SECONDS, CPU UTILIZATION IS    74.05%
 MEMORY FOR GRID POINT CONTRIBUTIONS TO THE DFT GRADIENT=    136239 WORDS.
 CPU     0: STEP CPU TIME=     0.03 TOTAL CPU TIME=          1.4 (      0.0 MIN)
 TOTAL WALL CLOCK TIME=          1.9 SECONDS, CPU UTILIZATION IS    74.30%
 ...... END OF 2-ELECTRON GRADIENT ......
 CPU     0: STEP CPU TIME=     0.00 TOTAL CPU TIME=          1.4 (      0.0 MIN)
 TOTAL WALL CLOCK TIME=          1.9 SECONDS, CPU UTILIZATION IS    74.31%

          NSERCH=  5     ENERGY=     -76.3418948

                                 -----------------------
                                 GRADIENT (HARTREE/BOHR)
                                 -----------------------
        ATOM     ZNUC       DE/DX         DE/DY         DE/DZ
 --------------------------------------------------------------
    1  O            8.0    -0.0000358    -0.0001245     0.0001049
    2  H            1.0     0.0000099    -0.0000549    -0.0001140
    3  H            1.0     0.0000259     0.0001794     0.0000092


                     --------------------
                     INTERNAL COORDINATES
                     --------------------

                 - - ATOMS - -         COORDINATE        GRADIENT
 NO.   TYPE    I  J  K  L  M  N         (ANG,DEG)     (H/B,H/RAD)
 ----------------------------------------------------------------
   1 SYM.CRD.                           1.6225772       0.0000060
   2 SYM.CRD.                          -0.4281710      -0.0000125
   3 SYM.CRD.                           0.0320885      -0.0000120

 NOTE: CARTESIAN GRADIENTS ARE ALWAYS TAKEN TO TEST CONVERGENCE,
       SO THE FOLLOWING GRADIENTS ARE CARTESIAN.

          MAXIMUM GRADIENT = 0.0000143    RMS GRADIENT = 0.0000089

 NSERCH:   5  E=      -76.3418947885  GRAD. MAX=  0.0000143  R.M.S.=  0.0000089


      ***** EQUILIBRIUM GEOMETRY LOCATED *****
 COORDINATES OF ALL ATOMS ARE (ANGS)
   ATOM   CHARGE       X              Y              Z
 ------------------------------------------------------------
 O           8.0   3.5495873684   2.8299867725  -4.6307952672
 H           1.0   3.0676840612   3.5164803179  -5.1010477598
 H           1.0   3.2478880947   2.8601182355  -3.7183548083


                     --------------------
                     INTERNAL COORDINATES
                     --------------------

                 - - ATOMS - -         COORDINATE      COORDINATE
 NO.   TYPE    I  J  K  L  M  N        (BOHR,RAD)       (ANG,DEG)
 ----------------------------------------------------------------
   1 STRETCH   1  3                     1.8169673       0.9614978
   2 STRETCH   1  2                     1.8171281       0.9615829
   3 BEND      2  1  3                  1.8592419     106.5267149

          INTERNUCLEAR DISTANCES (ANGS.)
          ------------------------------

                1 O          2 H          3 H     

   1 O       0.0000000    0.9615829 *  0.9614978 *
   2 H       0.9615829 *  0.0000000    1.5411439 *
   3 H       0.9614978 *  1.5411439 *  0.0000000  

  * ... LESS THAN  3.000


          NUCLEAR ENERGY    =        9.1488590586
          ELECTRONIC ENERGY =      -85.5113441682
          TOTAL ENERGY      =      -76.3418947885

          ------------------
          MOLECULAR ORBITALS
          ------------------

                      1          2          3          4          5
                  -19.3200    -1.1325    -0.6311    -0.4779    -0.4091
                     A          A          A          A          A   
    1  O  1  S   -0.993811   0.229057  -0.000032  -0.084310   0.000013
    2  O  1  S   -0.026373  -0.255596   0.000033   0.086567  -0.000016
    3  O  1  X    0.001122   0.065581  -0.049658   0.310745  -0.372717
    4  O  1  Y   -0.001026  -0.059951   0.180822  -0.284213  -0.338443
    5  O  1  Z   -0.000634  -0.037032  -0.381082  -0.175324  -0.112006
    6  O  1  S    0.004372  -0.634238   0.000152   0.351301  -0.000058
    7  O  1  X   -0.000529   0.050085  -0.038737   0.291324  -0.383504
    8  O  1  Y    0.000484  -0.045780   0.140974  -0.266460  -0.348211
    9  O  1  Z    0.000299  -0.028265  -0.297123  -0.164350  -0.115280
   10  O  1  S   -0.000195  -0.035948   0.000013   0.114619   0.000041
   11  O  1  X   -0.000168   0.005295  -0.003345   0.076715  -0.130434
   12  O  1  Y    0.000153  -0.004835   0.012066  -0.070159  -0.118378
   13  O  1  Z    0.000095  -0.002979  -0.025536  -0.043262  -0.039278
   14  H  2  S   -0.000157  -0.130182   0.236104  -0.132132  -0.000049
   15  H  2  S   -0.000688  -0.015115   0.159998  -0.111375  -0.000025
   16  H  2  X    0.000194  -0.012791   0.021590   0.002905  -0.018057
   17  H  2  Y   -0.000253   0.019361  -0.027478   0.004804  -0.016382
   18  H  2  Z    0.000117  -0.015874   0.011085  -0.024120  -0.005429
   19  H  3  S   -0.000157  -0.130245  -0.236152  -0.132095   0.000040
   20  H  3  S   -0.000688  -0.015166  -0.160059  -0.111464   0.000049
   21  H  3  X    0.000139  -0.007193  -0.015947   0.008368  -0.018059
   22  H  3  Y   -0.000052  -0.001078   0.006873  -0.015099  -0.016402
   23  H  3  Z   -0.000306   0.027174   0.032288   0.017769  -0.005435

                      6          7          8          9         10
                    0.1390     0.2164     0.2411     0.2475     0.3291
                     A          A          A          A          A   
    1  O  1  S   -0.096616   0.000068  -0.058226   0.000114   0.000004
    2  O  1  S    0.089347  -0.000054   0.037541  -0.000093   0.000018
    3  O  1  X   -0.099048   0.023828   0.118488  -0.174849  -0.035630
    4  O  1  Y    0.090392  -0.084435  -0.108803  -0.158848   0.129680
    5  O  1  Z    0.055948   0.179094  -0.067043  -0.051947  -0.273166
    6  O  1  S    0.675496  -0.000537   0.494487  -0.000895  -0.000177
    7  O  1  X   -0.084810   0.032745   0.197550  -0.313120  -0.081958
    8  O  1  Y    0.077237  -0.115098  -0.181414  -0.284294   0.298477
    9  O  1  Z    0.047989   0.244704  -0.111891  -0.093229  -0.628855
   10  O  1  S   -1.544066   0.000444  -0.016690   0.000608  -0.000620
   11  O  1  X    0.348698  -0.161997  -0.829171   0.797587  -0.115103
   12  O  1  Y   -0.318287   0.580360   0.760522   0.724483   0.420447
   13  O  1  Z   -0.196771  -1.228599   0.467984   0.235545  -0.886499
   14  H  2  S   -0.076811   0.007408  -0.027507   0.000131  -0.187555
   15  H  2  S    0.281600  -0.415738  -0.385976  -0.000755  -1.584638
   16  H  2  X    0.010726  -0.010409  -0.006162   0.001920   0.003496
   17  H  2  Y   -0.017453   0.015852   0.007081   0.001820   0.001341
   18  H  2  Z    0.017081  -0.013280  -0.000863   0.000536  -0.015570
   19  H  3  S   -0.076800  -0.007281  -0.027474   0.000024   0.187512
   20  H  3  S    0.281100   0.416067  -0.384736   0.001538   1.585485
   21  H  3  X    0.005109   0.005757  -0.005104   0.001974  -0.006786
   22  H  3  Y    0.002984   0.001071   0.003243   0.001773   0.010719
   23  H  3  Z   -0.026013  -0.022393   0.007194   0.000522  -0.009807

                     11         12         13         14         15
                    0.3651     1.2437     1.3346     1.5708     1.6234
                     A          A          A          A          A   
    1  O  1  S    0.072727   0.000010   0.035736  -0.000018  -0.037975
    2  O  1  S   -0.036857  -0.000023  -0.136287  -0.000086  -0.074326
    3  O  1  X    0.159390  -0.033982   0.175306  -0.097490   0.585569
    4  O  1  Y   -0.145751   0.123966  -0.160353   0.354881  -0.535578
    5  O  1  Z   -0.089944  -0.261201  -0.098853  -0.748898  -0.330025
    6  O  1  S   -0.780039   0.000040   0.447113   0.000505   0.551700
    7  O  1  X    0.395613  -0.005435  -0.103494   0.180971  -0.851940
    8  O  1  Y   -0.361786   0.019785   0.094717  -0.659476   0.779270
    9  O  1  Z   -0.223275  -0.041816   0.058248   1.391105   0.480091
   10  O  1  S   -2.491258   0.000292   1.749950   0.000396   0.289871
   11  O  1  X    0.593683   0.105401  -0.483529  -0.030247   0.202233
   12  O  1  Y   -0.542957  -0.384109   0.442196   0.109833  -0.184966
   13  O  1  Z   -0.334959   0.809486   0.272787  -0.231673  -0.113973
   14  H  2  S    0.179137  -0.980228   0.979352   0.293956  -0.273772
   15  H  2  S    1.942873   1.676332  -1.852081   0.375603  -0.298543
   16  H  2  X    0.013204   0.044737   0.001248   0.087587  -0.219019
   17  H  2  Y   -0.012988  -0.030924   0.041562  -0.177744   0.204751
   18  H  2  Z   -0.004779  -0.055360  -0.129722   0.245650   0.110051
   19  H  3  S    0.179084   0.980545   0.979158  -0.294147  -0.273513
   20  H  3  S    1.942819  -1.676846  -1.851572  -0.376443  -0.298296
   21  H  3  X    0.012560  -0.052057   0.032592  -0.016126  -0.215740
   22  H  3  Y   -0.010600   0.057565  -0.072532  -0.082966   0.192902
   23  H  3  Z   -0.009762  -0.000679   0.110621   0.304258   0.134981

     ---------------------------------------------------------------------
     PROPERTIES FOR THE WB97X-D  DFT FUNCTIONAL (RHF  TYPE) DENSITY MATRIX
     ---------------------------------------------------------------------

          ---------------------------------------
          MULLIKEN AND LOWDIN POPULATION ANALYSES
          ---------------------------------------

     ATOMIC MULLIKEN POPULATION IN EACH MOLECULAR ORBITAL

                      1          2          3          4          5

                  2.000000   2.000000   2.000000   2.000000   2.000000

    1             1.999856   1.684727   1.237466   1.777137   1.974743
    2             0.000072   0.157548   0.381225   0.111451   0.012623
    3             0.000072   0.157725   0.381309   0.111412   0.012634

               ----- POPULATIONS IN EACH AO -----
                             MULLIKEN      LOWDIN
              1  O  1  S      1.99555     1.98657
              2  O  1  S      0.43733     0.52985
              3  O  1  X      0.77150     0.75065
              4  O  1  Y      0.74408     0.71775
              5  O  1  Z      0.63661     0.58912
              6  O  1  S      1.34442     0.85962
              7  O  1  X      0.86915     0.84108
              8  O  1  Y      0.82237     0.80215
              9  O  1  Z      0.64106     0.65239
             10  O  1  S      0.07458     0.14783
             11  O  1  X      0.15468     0.19882
             12  O  1  Y      0.13300     0.18257
             13  O  1  Z      0.04959     0.12062
             14  H  2  S      0.44200     0.43100
             15  H  2  S      0.16642     0.25156
             16  H  2  X      0.01701     0.04093
             17  H  2  Y      0.02270     0.05490
             18  H  2  Z      0.01478     0.03202
             19  H  3  S      0.44211     0.43110
             20  H  3  S      0.16651     0.25161
             21  H  3  X      0.01344     0.03173
             22  H  3  Y      0.01077     0.02420
             23  H  3  Z      0.03030     0.07196

          ----- MULLIKEN ATOMIC OVERLAP POPULATIONS -----
          (OFF-DIAGONAL ELEMENTS NEED TO BE MULTIPLIED BY 2)

             1           2           3

    1    8.0996566
    2    0.2871401   0.4042151
    3    0.2871320  -0.0284357   0.4044555

          TOTAL MULLIKEN AND LOWDIN ATOMIC POPULATIONS
       ATOM         MULL.POP.    CHARGE          LOW.POP.     CHARGE
    1 O             8.673929   -0.673929         8.379014   -0.379014
    2 H             0.662919    0.337081         0.810405    0.189595
    3 H             0.663152    0.336848         0.810581    0.189419

          -------------------------------
          BOND ORDER AND VALENCE ANALYSIS     BOND ORDER THRESHOLD=0.050
          -------------------------------

                   BOND                       BOND                       BOND
  ATOM PAIR DIST  ORDER      ATOM PAIR DIST  ORDER      ATOM PAIR DIST  ORDER
    1   2  0.962  0.875        1   3  0.961  0.875

                       TOTAL       BONDED        FREE
      ATOM            VALENCE     VALENCE     VALENCE
    1 O                 1.749       1.749       0.000
    2 H                 0.883       0.883      -0.000
    3 H                 0.883       0.883       0.000

    **** A SOLVENT MODEL IS IN USE IN THIS RUN ****
 ELECTRICAL PROPERTIES (MOMENTS, DENSITY, FIELD/GRADIENT, AND/OR POTENTIAL)
 ARE COMPUTED USING THE SOLVATED SYSTEM'S DENSITY MATRIX, BUT
 ONLY WITH AO INTEGRAL CONTRIBUTIONS FROM THE QUANTUM SOLUTE.
 WITH THE EXCEPTIONS THAT THE DIPOLE AND, OPTIONALLY, 
 POTENTIAL ARE PRINTED WITH THE SOLUTE CONTRIBUTION.

          ----------------------------
          SOLUTE ELECTROSTATIC MOMENTS
          ----------------------------

 POINT   1           X           Y           Z (BOHR)    CHARGE
                 6.624886    5.423679   -8.704175        0.00 (A.U.)
         DX          DY          DZ         /D/  (DEBYE)
    -1.863490    1.704857    1.051191    2.735715

          ----------------------------
          SYSTEM ELECTROSTATIC MOMENTS
          ----------------------------

 POINT   1           X           Y           Z (BOHR)    CHARGE
                 6.624886    5.423679   -8.704175        0.00 (A.U.)
         DX          DY          DZ         /D/  (DEBYE)
    -1.863490    1.704857    1.051191    2.735715
 INCLUDING PCM SURFACE CHARGES, TOTAL CHARGE=   -0.011465, AND TOTAL DIPOLE IS
         DX          DY          DZ         /D/  (DEBYE)
    -0.107748    0.094559    0.060726    0.155688
 ...... END OF PROPERTY EVALUATION ......
 CPU     0: STEP CPU TIME=     0.01 TOTAL CPU TIME=          1.4 (      0.0 MIN)
 TOTAL WALL CLOCK TIME=          1.9 SECONDS, CPU UTILIZATION IS    74.37%
  $VIB   
          IVIB=   0 IATOM=   0 ICOORD=   0 E=      -76.3418947885
  1.048974232E-05-1.429256514E-05 8.271624313E-06-9.729538060E-06 1.326338027E-05
 -7.692143885E-06-7.602042592E-07 1.029184868E-06-5.794804281E-07
 -1.863490235E+00 1.704856890E+00 1.051190943E+00
 ......END OF GEOMETRY SEARCH......
 CPU     0: STEP CPU TIME=     0.00 TOTAL CPU TIME=          1.4 (      0.0 MIN)
 TOTAL WALL CLOCK TIME=          1.9 SECONDS, CPU UTILIZATION IS    74.37%


     *********************************************************
     THE HESSIAN WILL NOW BE COMPUTED AT THE STATIONARY POINT.
     *********************************************************

     ---------------------------------
     HESSIAN MATRIX CONTROL PARAMETERS
     ---------------------------------
     METHOD=SEMINUM    NVIB  =       2   VIBSIZ= 0.01000
     RDHESS=       F   PURIFY=       T   PRTIFC=       F
     VIBANL=       F   DECOMP=       F   PROJCT=       F
     SCLFAC= 1.00000   PRTSCN=       F   NPRT  =       0
     PULCOR=       F   NPUN  =       0   REDOVB=       T
     HSSTYP=GENERAL 

               * * * EFFICIENCY NOTE * * *
 THIS CALCULATION CAN BE RUN WITH DIFFERENTIATION METHOD=ANALYTIC
 THIS MIGHT BE MORE ACCURATE AND/OR FASTER THAN YOUR CHOICE,
 BUT THE REQUESTED CALCULATION METHOD=SEMINUM  IS PROCEEDING.


 THE VIB 0 GEOMETRY GRADIENT IS

 UNITS ARE HARTREE/BOHR    E'X               E'Y               E'Z 
    1 O                0.000010490      -0.000014293       0.000008272
    2 H               -0.000009730       0.000013263      -0.000007692
    3 H               -0.000000760       0.000001029      -0.000000579
  $VIB   
          IVIB=   0 IATOM=   0 ICOORD=   0 E=      -76.3418947885
  1.048974232E-05-1.429256514E-05 8.271624313E-06-9.729538060E-06 1.326338027E-05
 -7.692143885E-06-7.602042592E-07 1.029184868E-06-5.794804281E-07
 -1.863490235E+00 1.704856890E+00 1.051190943E+00
1   ATOM  1
                                        -------------------
   COORD  1                             NUCLEAR COORDINATES
                                        -------------------
     VIB  1

                       ATOM             X              Y              Z

                 1  O                6.717747       5.347900      -8.750934
                 2  H                5.797082       6.645184      -9.639583
                 3  H                6.137619       5.404840      -7.026672
 ...... END OF ONE-ELECTRON INTEGRALS ......
 CPU     0: STEP CPU TIME=     0.00 TOTAL CPU TIME=          1.4 (      0.0 MIN)
 TOTAL WALL CLOCK TIME=          1.9 SECONDS, CPU UTILIZATION IS    73.87%
 TOTAL NUMBER OF NONZERO TWO-ELECTRON INTEGRALS =               34567
          8 INTEGRAL RECORDS WERE STORED ON DISK FILE 21.
  ...... END OF TWO-ELECTRON INTEGRALS .....
 CPU     0: STEP CPU TIME=     0.00 TOTAL CPU TIME=          1.4 (      0.0 MIN)
 TOTAL WALL CLOCK TIME=          1.9 SECONDS, CPU UTILIZATION IS    73.55%
 TOTAL NUMBER OF NONZERO TWO-ELECTRON INTEGRALS =               34641
          8 INTEGRAL RECORDS WERE STORED ON DISK FILE  8.
  ...... END OF TWO-ELECTRON INTEGRALS .....
 CPU     0: STEP CPU TIME=     0.00 TOTAL CPU TIME=          1.4 (      0.0 MIN)
 TOTAL WALL CLOCK TIME=          1.9 SECONDS, CPU UTILIZATION IS    73.19%

     ----------------------------
     INPUT FOR TESSERA DEFINITION
     ----------------------------
     NTSALL  =        60     MTHALL  =         4
     MTHAUT  =         0     AUTFRE  =    2.0000
     NTSFRZ  =        60     KEEPSM  =         0
     AREAKP  =   10.0000     BONDRY  =    1.0000
     AREATL  =    0.0100

     SPHERE     INITS       METHOD
          1        60       FIXPVA
          2        60       FIXPVA
          3        60       FIXPVA

     ------------------------------
      FIXPVA TESSELLATION FOR PCM
         PEIFENG SU AND HUI LI
     UNIVERSITY OF NEBRASKA-LINCOLN
     ------------------------------


     INPUT FOR CAVITY DEFINITION 
     ---------------------------
   ATOM               COORDINATES                RADIUS       EPS
      1      3.5549      2.8300     -4.6308      1.5000     78.3900
      2      3.0677      3.5165     -5.1010      1.2000     78.3900
      3      3.2479      2.8601     -3.7184      1.2000     78.3900

 MEMORY USED TO GENERATE CAVITY=    176782


 TOTAL NUMBER OF SPHERES=     3
 SPHERE           CENTER  (X,Y,Z) (A)               RADIUS (A)      AREA(A*A)
     1   3.554879141   2.829986773  -4.630795267   1.800000000  21.611852253
     2   3.067684061   3.516480318  -5.101047760   1.440000000  10.339968874
     3   3.247888095   2.860118236  -3.718354808   1.440000000  10.022095086

 TOTAL NUMBER OF TESSERAE=      88
 SURFACE AREA=    41.97391621(A**2)    CAVITY VOLUME=     28.12352895 (A**3)
 CPU     0: STEP CPU TIME=     0.00 TOTAL CPU TIME=          1.4 (      0.0 MIN)
 TOTAL WALL CLOCK TIME=          1.9 SECONDS, CPU UTILIZATION IS    73.20%

          THE SOLUTE IS ENCLOSED IN ONE CAVITY
 DONE CHECKING SEPARATION.
 CPU     0: STEP CPU TIME=     0.00 TOTAL CPU TIME=          1.4 (      0.0 MIN)
 TOTAL WALL CLOCK TIME=          1.9 SECONDS, CPU UTILIZATION IS    73.20%

 ..... DONE SETTING UP PCM CALCULATION .....
 CPU     0: STEP CPU TIME=     0.00 TOTAL CPU TIME=          1.4 (      0.0 MIN)
 TOTAL WALL CLOCK TIME=          1.9 SECONDS, CPU UTILIZATION IS    73.00%
 NUCLEI-NUCLEAR CHARGE POLARIZATION ADJUSTMENT TO VNN=        0.0000000000

          --------------------------
           R-WB97X-D SCF CALCULATION
          --------------------------
         DENSITY MATRIX CONVERGENCE THRESHOLD=  1.00E-05
     COARSE -> FINE DFT GRID SWITCH THRESHOLD=  3.00E-04 (SWITCH IN $DFT)
                   HF -> DFT SWITCH THRESHOLD=  5.00E-03 (SWOFF IN $DFT)

 ITER EX DEM     TOTAL ENERGY        E CHANGE  DENSITY CHANGE    DIIS ERROR      VIR. SHIFT       DAMPING
          * * *   INITIATING DIIS PROCEDURE   * * *
   1  0  0      -76.3418444957   -76.3418444957   0.002219159   0.001917597     0.000000000     1.000000000
   2  1  0      -76.3418542891    -0.0000097935   0.000394227   0.000443664     0.000000000     1.000000000
   3  2  0      -76.3418545355    -0.0000002463   0.000181184   0.000422871     0.000000000     1.000000000
   4  3  0      -76.3418547176    -0.0000001821   0.000084224   0.000062949     0.000000000     1.000000000
   5  4  0      -76.3418547264    -0.0000000088   0.000020088   0.000008645     0.000000000     1.000000000
   6  5  0      -76.3418547266    -0.0000000003   0.000003481   0.000001051     0.000000000     1.000000000
   7  6  0      -76.3418547266     0.0000000000   0.000000804   0.000000160     0.000000000     1.000000000

          -----------------
          DENSITY CONVERGED
          -----------------
     TIME TO FORM FOCK OPERATORS=       0.2 SECONDS (       0.0 SEC/ITER)
     TIME TO SOLVE SCF EQUATIONS=       0.0 SECONDS (       0.0 SEC/ITER)

          ----------------------------
          DFT-D PARAMETERS AND RESULTS
          ----------------------------
 C6 COEFFICIENTS USED:
       1 C6 FOR ELEMENT   1
  Z=  1 C6(AA)=    2.43
       1 C6 FOR ELEMENT   8
  Z=  8 C6(AA)=   12.14

 #          XYZ [AU]             R0(AA) [ANG.]  CN         C6(AA)     C8(AA)   C10(AA) [AU]
  1   6.71775   5.34790  -8.75093    8  1.220  1.987        12.1       245.0      6057.3
  2   5.79708   6.64518  -9.63958    1  0.910  0.994         2.4        29.4       434.7
  3   6.13762   5.40484  -7.02667    1  0.910  0.994         2.4        29.4       434.7

     MOLECULAR C6(AA) [AU] =        43.57

           DFT-D V2

 FUNCTIONAL: WB97X-D 

 PARAMETERS
 S6       :    1.0000
 RS6      :    1.1000
 USING CHAI-HEAD-GORDON DAMPING FUNCTION
 ALPHA6   :    6.0000

 EDISP /KCAL,AU:    -0.0186 -0.00002968

 E6    /KCAL :    -0.0186

 FINAL R-WB97X-D ENERGY IS      -76.3418844087 AFTER   7 ITERATIONS
 DFT EXCHANGE + CORRELATION ENERGY =        -6.4530386237
 TOTAL ELECTRON NUMBER             =        10.0000084756
 GRIMME'S DISPERSION ENERGY                     =       -0.0000296821
 ENERGY WITHOUT GRIMME'S DISPERSION CORRECTION IS      -76.3418547266

 Alpha HOMO=   -11.130178 eV, LUMO=    3.773493 eV, gap=   14.903670 eV
  
   PCM ASC=     -0.0114511640
   GCAVP  =      0.0000000000
   GDISP  =      0.0000000000
   GREP   =      0.0000000000
 ...... END OF RHF CALCULATION ......
 CPU     0: STEP CPU TIME=     0.17 TOTAL CPU TIME=          1.6 (      0.0 MIN)
 TOTAL WALL CLOCK TIME=          2.1 SECONDS, CPU UTILIZATION IS    73.10%

 .... DONE WITH PCM CONTRIBUTION TO GRADIENT ....
 CPU     0: STEP CPU TIME=     0.00 TOTAL CPU TIME=          1.6 (      0.0 MIN)
 TOTAL WALL CLOCK TIME=          2.1 SECONDS, CPU UTILIZATION IS    73.11%

          ----------------------------
          DFT-D PARAMETERS AND RESULTS
          ----------------------------
 C6 COEFFICIENTS USED:
       1 C6 FOR ELEMENT   1
  Z=  1 C6(AA)=    2.43
       1 C6 FOR ELEMENT   8
  Z=  8 C6(AA)=   12.14

 #          XYZ [AU]             R0(AA) [ANG.]  CN         C6(AA)     C8(AA)   C10(AA) [AU]
  1   6.71775   5.34790  -8.75093    8  1.220  1.987        12.1       245.0      6057.3
  2   5.79708   6.64518  -9.63958    1  0.910  0.994         2.4        29.4       434.7
  3   6.13762   5.40484  -7.02667    1  0.910  0.994         2.4        29.4       434.7

     MOLECULAR C6(AA) [AU] =        43.57

           DFT-D V2

 FUNCTIONAL: WB97X-D 

 PARAMETERS
 S6       :    1.0000
 RS6      :    1.1000
 USING CHAI-HEAD-GORDON DAMPING FUNCTION
 ALPHA6   :    6.0000

 EDISP /KCAL,AU:    -0.0186 -0.00002968

 E6    /KCAL :    -0.0186
 ..... END OF 1-ELECTRON GRADIENT ......
 CPU     0: STEP CPU TIME=     0.01 TOTAL CPU TIME=          1.6 (      0.0 MIN)
 TOTAL WALL CLOCK TIME=          2.2 SECONDS, CPU UTILIZATION IS    73.19%
 MEMORY FOR GRID POINT CONTRIBUTIONS TO THE DFT GRADIENT=    136230 WORDS.
 CPU     0: STEP CPU TIME=     0.02 TOTAL CPU TIME=          1.6 (      0.0 MIN)
 TOTAL WALL CLOCK TIME=          2.2 SECONDS, CPU UTILIZATION IS    72.79%
 ...... END OF 2-ELECTRON GRADIENT ......
 CPU     0: STEP CPU TIME=     0.00 TOTAL CPU TIME=          1.6 (      0.0 MIN)
 TOTAL WALL CLOCK TIME=          2.2 SECONDS, CPU UTILIZATION IS    72.79%

 UNITS ARE HARTREE/BOHR    E'X               E'Y               E'Z 
    1 O                0.002116205      -0.002339353      -0.000301739
    2 H               -0.001454017       0.001840187      -0.001071552
    3 H               -0.000662188       0.000499166       0.001373291
  $VIB   
          IVIB=   1 IATOM=   1 ICOORD=   1 E=      -76.3418844087
  2.116205130E-03-2.339353228E-03-3.017393220E-04-1.454016738E-03 1.840186901E-03
 -1.071551604E-03-6.621883830E-04 4.991663197E-04 1.373290916E-03
 -1.883328266E+00 1.699777930E+00 1.048908398E+00
1   ATOM  1
                                        -------------------
   COORD  2                             NUCLEAR COORDINATES
                                        -------------------
     VIB  1

                       ATOM             X              Y              Z

                 1  O                6.707747       5.357900      -8.750934
                 2  H                5.797082       6.645184      -9.639583
                 3  H                6.137619       5.404840      -7.026672
 ...... END OF ONE-ELECTRON INTEGRALS ......
 CPU     0: STEP CPU TIME=     0.00 TOTAL CPU TIME=          1.6 (      0.0 MIN)
 TOTAL WALL CLOCK TIME=          2.2 SECONDS, CPU UTILIZATION IS    72.79%
 TOTAL NUMBER OF NONZERO TWO-ELECTRON INTEGRALS =               34554
          8 INTEGRAL RECORDS WERE STORED ON DISK FILE 21.
  ...... END OF TWO-ELECTRON INTEGRALS .....
 CPU     0: STEP CPU TIME=     0.00 TOTAL CPU TIME=          1.6 (      0.0 MIN)
 TOTAL WALL CLOCK TIME=          2.2 SECONDS, CPU UTILIZATION IS    72.61%
 TOTAL NUMBER OF NONZERO TWO-ELECTRON INTEGRALS =               34641
          8 INTEGRAL RECORDS WERE STORED ON DISK FILE  8.
  ...... END OF TWO-ELECTRON INTEGRALS .....
 CPU     0: STEP CPU TIME=     0.00 TOTAL CPU TIME=          1.6 (      0.0 MIN)
 TOTAL WALL CLOCK TIME=          2.2 SECONDS, CPU UTILIZATION IS    72.40%

     ----------------------------
     INPUT FOR TESSERA DEFINITION
     ----------------------------
     NTSALL  =        60     MTHALL  =         4
     MTHAUT  =         0     AUTFRE  =    2.0000
     NTSFRZ  =        60     KEEPSM  =         0
     AREAKP  =   10.0000     BONDRY  =    1.0000
     AREATL  =    0.0100

     SPHERE     INITS       METHOD
          1        60       FIXPVA
          2        60       FIXPVA
          3        60       FIXPVA

     ------------------------------
      FIXPVA TESSELLATION FOR PCM
         PEIFENG SU AND HUI LI
     UNIVERSITY OF NEBRASKA-LINCOLN
     ------------------------------


     INPUT FOR CAVITY DEFINITION 
     ---------------------------
   ATOM               COORDINATES                RADIUS       EPS
      1      3.5496      2.8353     -4.6308      1.5000     78.3900
      2      3.0677      3.5165     -5.1010      1.2000     78.3900
      3      3.2479      2.8601     -3.7184      1.2000     78.3900

 MEMORY USED TO GENERATE CAVITY=    176782


 TOTAL NUMBER OF SPHERES=     3
 SPHERE           CENTER  (X,Y,Z) (A)               RADIUS (A)      AREA(A*A)
     1   3.549587368   2.835278545  -4.630795267   1.800000000  21.533608604
     2   3.067684061   3.516480318  -5.101047760   1.440000000  10.309206567
     3   3.247888095   2.860118236  -3.718354808   1.440000000  10.054604140

 TOTAL NUMBER OF TESSERAE=      88
 SURFACE AREA=    41.89741931(A**2)    CAVITY VOLUME=     28.13498210 (A**3)
 CPU     0: STEP CPU TIME=     0.00 TOTAL CPU TIME=          1.6 (      0.0 MIN)
 TOTAL WALL CLOCK TIME=          2.2 SECONDS, CPU UTILIZATION IS    72.41%

          THE SOLUTE IS ENCLOSED IN ONE CAVITY
 DONE CHECKING SEPARATION.
 CPU     0: STEP CPU TIME=     0.00 TOTAL CPU TIME=          1.6 (      0.0 MIN)
 TOTAL WALL CLOCK TIME=          2.2 SECONDS, CPU UTILIZATION IS    72.41%

 ..... DONE SETTING UP PCM CALCULATION .....
 CPU     0: STEP CPU TIME=     0.00 TOTAL CPU TIME=          1.6 (      0.0 MIN)
 TOTAL WALL CLOCK TIME=          2.2 SECONDS, CPU UTILIZATION IS    72.30%
 NUCLEI-NUCLEAR CHARGE POLARIZATION ADJUSTMENT TO VNN=        0.0000000000

          --------------------------
           R-WB97X-D SCF CALCULATION
          --------------------------
         DENSITY MATRIX CONVERGENCE THRESHOLD=  1.00E-05
     COARSE -> FINE DFT GRID SWITCH THRESHOLD=  3.00E-04 (SWITCH IN $DFT)
                   HF -> DFT SWITCH THRESHOLD=  5.00E-03 (SWOFF IN $DFT)

 ITER EX DEM     TOTAL ENERGY        E CHANGE  DENSITY CHANGE    DIIS ERROR      VIR. SHIFT       DAMPING
          * * *   INITIATING DIIS PROCEDURE   * * *
   1  0  0      -76.3418399049   -76.3418399049   0.002050297   0.001738544     0.000000000     1.000000000
   2  1  0      -76.3418506757    -0.0000107709   0.000361927   0.000399874     0.000000000     1.000000000
   3  2  0      -76.3418509532    -0.0000002774   0.000169944   0.000376365     0.000000000     1.000000000
   4  3  0      -76.3418511017    -0.0000001486   0.000073159   0.000080519     0.000000000     1.000000000
   5  4  0      -76.3418511126    -0.0000000109   0.000021070   0.000009586     0.000000000     1.000000000
   6  5  0      -76.3418511130    -0.0000000004   0.000003271   0.000001359     0.000000000     1.000000000
   7  6  0      -76.3418511130    -0.0000000000   0.000000932   0.000000199     0.000000000     1.000000000

          -----------------
          DENSITY CONVERGED
          -----------------
     TIME TO FORM FOCK OPERATORS=       0.2 SECONDS (       0.0 SEC/ITER)
     TIME TO SOLVE SCF EQUATIONS=       0.0 SECONDS (       0.0 SEC/ITER)

          ----------------------------
          DFT-D PARAMETERS AND RESULTS
          ----------------------------
 C6 COEFFICIENTS USED:
       1 C6 FOR ELEMENT   1
  Z=  1 C6(AA)=    2.43
       1 C6 FOR ELEMENT   8
  Z=  8 C6(AA)=   12.14

 #          XYZ [AU]             R0(AA) [ANG.]  CN         C6(AA)     C8(AA)   C10(AA) [AU]
  1   6.70775   5.35790  -8.75093    8  1.220  1.988        12.1       245.0      6057.3
  2   5.79708   6.64518  -9.63958    1  0.910  0.995         2.4        29.4       434.7
  3   6.13762   5.40484  -7.02667    1  0.910  0.995         2.4        29.4       434.7

     MOLECULAR C6(AA) [AU] =        43.57

           DFT-D V2

 FUNCTIONAL: WB97X-D 

 PARAMETERS
 S6       :    1.0000
 RS6      :    1.1000
 USING CHAI-HEAD-GORDON DAMPING FUNCTION
 ALPHA6   :    6.0000

 EDISP /KCAL,AU:    -0.0186 -0.00002965

 E6    /KCAL :    -0.0186

 FINAL R-WB97X-D ENERGY IS      -76.3418807656 AFTER   7 ITERATIONS
 DFT EXCHANGE + CORRELATION ENERGY =        -6.4559887071
 TOTAL ELECTRON NUMBER             =        10.0000082823
 GRIMME'S DISPERSION ENERGY                     =       -0.0000296526
 ENERGY WITHOUT GRIMME'S DISPERSION CORRECTION IS      -76.3418511130

 Alpha HOMO=   -11.135798 eV, LUMO=    3.791389 eV, gap=   14.927187 eV
  
   PCM ASC=     -0.0115087842
   GCAVP  =      0.0000000000
   GDISP  =      0.0000000000
   GREP   =      0.0000000000
 ...... END OF RHF CALCULATION ......
 CPU     0: STEP CPU TIME=     0.18 TOTAL CPU TIME=          1.8 (      0.0 MIN)
 TOTAL WALL CLOCK TIME=          2.4 SECONDS, CPU UTILIZATION IS    73.40%

 .... DONE WITH PCM CONTRIBUTION TO GRADIENT ....
 CPU     0: STEP CPU TIME=     0.00 TOTAL CPU TIME=          1.8 (      0.0 MIN)
 TOTAL WALL CLOCK TIME=          2.4 SECONDS, CPU UTILIZATION IS    73.40%

          ----------------------------
          DFT-D PARAMETERS AND RESULTS
          ----------------------------
 C6 COEFFICIENTS USED:
       1 C6 FOR ELEMENT   1
  Z=  1 C6(AA)=    2.43
       1 C6 FOR ELEMENT   8
  Z=  8 C6(AA)=   12.14

 #          XYZ [AU]             R0(AA) [ANG.]  CN         C6(AA)     C8(AA)   C10(AA) [AU]
  1   6.70775   5.35790  -8.75093    8  1.220  1.988        12.1       245.0      6057.3
  2   5.79708   6.64518  -9.63958    1  0.910  0.995         2.4        29.4       434.7
  3   6.13762   5.40484  -7.02667    1  0.910  0.995         2.4        29.4       434.7

     MOLECULAR C6(AA) [AU] =        43.57

           DFT-D V2

 FUNCTIONAL: WB97X-D 

 PARAMETERS
 S6       :    1.0000
 RS6      :    1.1000
 USING CHAI-HEAD-GORDON DAMPING FUNCTION
 ALPHA6   :    6.0000

 EDISP /KCAL,AU:    -0.0186 -0.00002965

 E6    /KCAL :    -0.0186
 ..... END OF 1-ELECTRON GRADIENT ......
 CPU     0: STEP CPU TIME=     0.01 TOTAL CPU TIME=          1.8 (      0.0 MIN)
 TOTAL WALL CLOCK TIME=          2.4 SECONDS, CPU UTILIZATION IS    73.47%
 MEMORY FOR GRID POINT CONTRIBUTIONS TO THE DFT GRADIENT=    136230 WORDS.
 CPU     0: STEP CPU TIME=     0.02 TOTAL CPU TIME=          1.8 (      0.0 MIN)
 TOTAL WALL CLOCK TIME=          2.5 SECONDS, CPU UTILIZATION IS    73.68%
 ...... END OF 2-ELECTRON GRADIENT ......
 CPU     0: STEP CPU TIME=     0.00 TOTAL CPU TIME=          1.8 (      0.0 MIN)
 TOTAL WALL CLOCK TIME=          2.5 SECONDS, CPU UTILIZATION IS    73.69%

 UNITS ARE HARTREE/BOHR    E'X               E'Y               E'Z 
    1 O               -0.002297675       0.002934865      -0.001612407
    2 H                0.002076119      -0.002874856       0.001484968
    3 H                0.000221556      -0.000060010       0.000127439
  $VIB   
          IVIB=   1 IATOM=   1 ICOORD=   2 E=      -76.3418807656
 -2.297674954E-03 2.934865349E-03-1.612407466E-03 2.076118882E-03-2.874855631E-03
  1.484968030E-03 2.215560588E-04-6.000971338E-05 1.274394258E-04
 -1.868553206E+00 1.685289709E+00 1.051486172E+00
1   ATOM  1
                                        -------------------
   COORD  3                             NUCLEAR COORDINATES
                                        -------------------
     VIB  1

                       ATOM             X              Y              Z

                 1  O                6.707747       5.347900      -8.740934
                 2  H                5.797082       6.645184      -9.639583
                 3  H                6.137619       5.404840      -7.026672
 ...... END OF ONE-ELECTRON INTEGRALS ......
 CPU     0: STEP CPU TIME=     0.00 TOTAL CPU TIME=          1.8 (      0.0 MIN)
 TOTAL WALL CLOCK TIME=          2.5 SECONDS, CPU UTILIZATION IS    73.69%
 TOTAL NUMBER OF NONZERO TWO-ELECTRON INTEGRALS =               34568
          8 INTEGRAL RECORDS WERE STORED ON DISK FILE 21.
  ...... END OF TWO-ELECTRON INTEGRALS .....
 CPU     0: STEP CPU TIME=     0.00 TOTAL CPU TIME=          1.8 (      0.0 MIN)
 TOTAL WALL CLOCK TIME=          2.5 SECONDS, CPU UTILIZATION IS    73.67%
 TOTAL NUMBER OF NONZERO TWO-ELECTRON INTEGRALS =               34641
          8 INTEGRAL RECORDS WERE STORED ON DISK FILE  8.
  ...... END OF TWO-ELECTRON INTEGRALS .....
 CPU     0: STEP CPU TIME=     0.00 TOTAL CPU TIME=          1.8 (      0.0 MIN)
 TOTAL WALL CLOCK TIME=          2.5 SECONDS, CPU UTILIZATION IS    73.66%

     ----------------------------
     INPUT FOR TESSERA DEFINITION
     ----------------------------
     NTSALL  =        60     MTHALL  =         4
     MTHAUT  =         0     AUTFRE  =    2.0000
     NTSFRZ  =        60     KEEPSM  =         0
     AREAKP  =   10.0000     BONDRY  =    1.0000
     AREATL  =    0.0100

     SPHERE     INITS       METHOD
          1        60       FIXPVA
          2        60       FIXPVA
          3        60       FIXPVA

     ------------------------------
      FIXPVA TESSELLATION FOR PCM
         PEIFENG SU AND HUI LI
     UNIVERSITY OF NEBRASKA-LINCOLN
     ------------------------------


     INPUT FOR CAVITY DEFINITION 
     ---------------------------
   ATOM               COORDINATES                RADIUS       EPS
      1      3.5496      2.8300     -4.6255      1.5000     78.3900
      2      3.0677      3.5165     -5.1010      1.2000     78.3900
      3      3.2479      2.8601     -3.7184      1.2000     78.3900

 MEMORY USED TO GENERATE CAVITY=    176782


 TOTAL NUMBER OF SPHERES=     3
 SPHERE           CENTER  (X,Y,Z) (A)               RADIUS (A)      AREA(A*A)
     1   3.549587368   2.829986773  -4.625503495   1.800000000  21.589762914
     2   3.067684061   3.516480318  -5.101047760   1.440000000  10.362208272
     3   3.247888095   2.860118236  -3.718354808   1.440000000   9.993954349

 TOTAL NUMBER OF TESSERAE=      88
 SURFACE AREA=    41.94592554(A**2)    CAVITY VOLUME=     28.12307404 (A**3)
 CPU     0: STEP CPU TIME=     0.00 TOTAL CPU TIME=          1.8 (      0.0 MIN)
 TOTAL WALL CLOCK TIME=          2.5 SECONDS, CPU UTILIZATION IS    73.67%

          THE SOLUTE IS ENCLOSED IN ONE CAVITY
 DONE CHECKING SEPARATION.
 CPU     0: STEP CPU TIME=     0.00 TOTAL CPU TIME=          1.8 (      0.0 MIN)
 TOTAL WALL CLOCK TIME=          2.5 SECONDS, CPU UTILIZATION IS    73.67%

 ..... DONE SETTING UP PCM CALCULATION .....
 CPU     0: STEP CPU TIME=     0.00 TOTAL CPU TIME=          1.8 (      0.0 MIN)
 TOTAL WALL CLOCK TIME=          2.5 SECONDS, CPU UTILIZATION IS    73.63%
 NUCLEI-NUCLEAR CHARGE POLARIZATION ADJUSTMENT TO VNN=        0.0000000000

          --------------------------
           R-WB97X-D SCF CALCULATION
          --------------------------
         DENSITY MATRIX CONVERGENCE THRESHOLD=  1.00E-05
     COARSE -> FINE DFT GRID SWITCH THRESHOLD=  3.00E-04 (SWITCH IN $DFT)
                   HF -> DFT SWITCH THRESHOLD=  5.00E-03 (SWOFF IN $DFT)

 ITER EX DEM     TOTAL ENERGY        E CHANGE  DENSITY CHANGE    DIIS ERROR      VIR. SHIFT       DAMPING
          * * *   INITIATING DIIS PROCEDURE   * * *
   1  0  0      -76.3418163527   -76.3418163527   0.002085346   0.003261352     0.000000000     1.000000000
   2  1  0      -76.3418311249    -0.0000147722   0.000335780   0.000521893     0.000000000     1.000000000
   3  2  0      -76.3418315228    -0.0000003979   0.000133821   0.000233249     0.000000000     1.000000000
   4  3  0      -76.3418315868    -0.0000000640   0.000047295   0.000130765     0.000000000     1.000000000
   5  4  0      -76.3418316054    -0.0000000186   0.000014796   0.000010835     0.000000000     1.000000000
   6  5  0      -76.3418316058    -0.0000000004   0.000001450   0.000000778     0.000000000     1.000000000
   7  6  0      -76.3418316058    -0.0000000000   0.000000423   0.000000180     0.000000000     1.000000000

          -----------------
          DENSITY CONVERGED
          -----------------
     TIME TO FORM FOCK OPERATORS=       0.2 SECONDS (       0.0 SEC/ITER)
     TIME TO SOLVE SCF EQUATIONS=       0.0 SECONDS (       0.0 SEC/ITER)

          ----------------------------
          DFT-D PARAMETERS AND RESULTS
          ----------------------------
 C6 COEFFICIENTS USED:
       1 C6 FOR ELEMENT   1
  Z=  1 C6(AA)=    2.43
       1 C6 FOR ELEMENT   8
  Z=  8 C6(AA)=   12.14

 #          XYZ [AU]             R0(AA) [ANG.]  CN         C6(AA)     C8(AA)   C10(AA) [AU]
  1   6.70775   5.34790  -8.74093    8  1.220  1.988        12.1       245.0      6057.3
  2   5.79708   6.64518  -9.63958    1  0.910  0.994         2.4        29.4       434.7
  3   6.13762   5.40484  -7.02667    1  0.910  0.995         2.4        29.4       434.7

     MOLECULAR C6(AA) [AU] =        43.57

           DFT-D V2

 FUNCTIONAL: WB97X-D 

 PARAMETERS
 S6       :    1.0000
 RS6      :    1.1000
 USING CHAI-HEAD-GORDON DAMPING FUNCTION
 ALPHA6   :    6.0000

 EDISP /KCAL,AU:    -0.0186 -0.00002966

 E6    /KCAL :    -0.0186

 FINAL R-WB97X-D ENERGY IS      -76.3418612639 AFTER   7 ITERATIONS
 DFT EXCHANGE + CORRELATION ENERGY =        -6.4554626497
 TOTAL ELECTRON NUMBER             =        10.0000092232
 GRIMME'S DISPERSION ENERGY                     =       -0.0000296581
 ENERGY WITHOUT GRIMME'S DISPERSION CORRECTION IS      -76.3418316058

 Alpha HOMO=   -11.135324 eV, LUMO=    3.787311 eV, gap=   14.922636 eV
  
   PCM ASC=     -0.0114600683
   GCAVP  =      0.0000000000
   GDISP  =      0.0000000000
   GREP   =      0.0000000000
 ...... END OF RHF CALCULATION ......
 CPU     0: STEP CPU TIME=     0.18 TOTAL CPU TIME=          2.0 (      0.0 MIN)
 TOTAL WALL CLOCK TIME=          2.7 SECONDS, CPU UTILIZATION IS    74.65%

 .... DONE WITH PCM CONTRIBUTION TO GRADIENT ....
 CPU     0: STEP CPU TIME=     0.00 TOTAL CPU TIME=          2.0 (      0.0 MIN)
 TOTAL WALL CLOCK TIME=          2.7 SECONDS, CPU UTILIZATION IS    74.65%

          ----------------------------
          DFT-D PARAMETERS AND RESULTS
          ----------------------------
 C6 COEFFICIENTS USED:
       1 C6 FOR ELEMENT   1
  Z=  1 C6(AA)=    2.43
       1 C6 FOR ELEMENT   8
  Z=  8 C6(AA)=   12.14

 #          XYZ [AU]             R0(AA) [ANG.]  CN         C6(AA)     C8(AA)   C10(AA) [AU]
  1   6.70775   5.34790  -8.74093    8  1.220  1.988        12.1       245.0      6057.3
  2   5.79708   6.64518  -9.63958    1  0.910  0.994         2.4        29.4       434.7
  3   6.13762   5.40484  -7.02667    1  0.910  0.995         2.4        29.4       434.7

     MOLECULAR C6(AA) [AU] =        43.57

           DFT-D V2

 FUNCTIONAL: WB97X-D 

 PARAMETERS
 S6       :    1.0000
 RS6      :    1.1000
 USING CHAI-HEAD-GORDON DAMPING FUNCTION
 ALPHA6   :    6.0000

 EDISP /KCAL,AU:    -0.0186 -0.00002966

 E6    /KCAL :    -0.0186
 ..... END OF 1-ELECTRON GRADIENT ......
 CPU     0: STEP CPU TIME=     0.01 TOTAL CPU TIME=          2.0 (      0.0 MIN)
 TOTAL WALL CLOCK TIME=          2.7 SECONDS, CPU UTILIZATION IS    74.70%
 MEMORY FOR GRID POINT CONTRIBUTIONS TO THE DFT GRADIENT=    136230 WORDS.
 CPU     0: STEP CPU TIME=     0.02 TOTAL CPU TIME=          2.0 (      0.0 MIN)
 TOTAL WALL CLOCK TIME=          2.7 SECONDS, CPU UTILIZATION IS    74.87%
 ...... END OF 2-ELECTRON GRADIENT ......
 CPU     0: STEP CPU TIME=     0.00 TOTAL CPU TIME=          2.0 (      0.0 MIN)
 TOTAL WALL CLOCK TIME=          2.7 SECONDS, CPU UTILIZATION IS    74.88%

 UNITS ARE HARTREE/BOHR    E'X               E'Y               E'Z 
    1 O               -0.000481561      -0.001782225       0.006631337
    2 H               -0.001321527       0.001918054      -0.001696865
    3 H                0.001803089      -0.000135830      -0.004934473
  $VIB   
          IVIB=   1 IATOM=   1 ICOORD=   3 E=      -76.3418612639
 -4.815614171E-04-1.782224902E-03 6.631337196E-03-1.321527234E-03 1.918054441E-03
 -1.696864658E-03 1.803088639E-03-1.358295454E-04-4.934472551E-03
 -1.865757014E+00 1.705072582E+00 1.032857483E+00
1   ATOM  2
                                        -------------------
   COORD  1                             NUCLEAR COORDINATES
                                        -------------------
     VIB  1

                       ATOM             X              Y              Z

                 1  O                6.707747       5.347900      -8.750934
                 2  H                5.807082       6.645184      -9.639583
                 3  H                6.137619       5.404840      -7.026672
 ...... END OF ONE-ELECTRON INTEGRALS ......
 CPU     0: STEP CPU TIME=     0.00 TOTAL CPU TIME=          2.0 (      0.0 MIN)
 TOTAL WALL CLOCK TIME=          2.7 SECONDS, CPU UTILIZATION IS    74.88%
 TOTAL NUMBER OF NONZERO TWO-ELECTRON INTEGRALS =               34564
          8 INTEGRAL RECORDS WERE STORED ON DISK FILE 21.
  ...... END OF TWO-ELECTRON INTEGRALS .....
 CPU     0: STEP CPU TIME=     0.00 TOTAL CPU TIME=          2.0 (      0.0 MIN)
 TOTAL WALL CLOCK TIME=          2.7 SECONDS, CPU UTILIZATION IS    74.87%
 TOTAL NUMBER OF NONZERO TWO-ELECTRON INTEGRALS =               34641
          8 INTEGRAL RECORDS WERE STORED ON DISK FILE  8.
  ...... END OF TWO-ELECTRON INTEGRALS .....
 CPU     0: STEP CPU TIME=     0.00 TOTAL CPU TIME=          2.0 (      0.0 MIN)
 TOTAL WALL CLOCK TIME=          2.7 SECONDS, CPU UTILIZATION IS    74.86%

     ----------------------------
     INPUT FOR TESSERA DEFINITION
     ----------------------------
     NTSALL  =        60     MTHALL  =         4
     MTHAUT  =         0     AUTFRE  =    2.0000
     NTSFRZ  =        60     KEEPSM  =         0
     AREAKP  =   10.0000     BONDRY  =    1.0000
     AREATL  =    0.0100

     SPHERE     INITS       METHOD
          1        60       FIXPVA
          2        60       FIXPVA
          3        60       FIXPVA

     ------------------------------
      FIXPVA TESSELLATION FOR PCM
         PEIFENG SU AND HUI LI
     UNIVERSITY OF NEBRASKA-LINCOLN
     ------------------------------


     INPUT FOR CAVITY DEFINITION 
     ---------------------------
   ATOM               COORDINATES                RADIUS       EPS
      1      3.5496      2.8300     -4.6308      1.5000     78.3900
      2      3.0730      3.5165     -5.1010      1.2000     78.3900
      3      3.2479      2.8601     -3.7184      1.2000     78.3900

 MEMORY USED TO GENERATE CAVITY=    176782


 TOTAL NUMBER OF SPHERES=     3
 SPHERE           CENTER  (X,Y,Z) (A)               RADIUS (A)      AREA(A*A)
     1   3.549587368   2.829986773  -4.630795267   1.800000000  21.561192984
     2   3.072975834   3.516480318  -5.101047760   1.440000000  10.335540357
     3   3.247888095   2.860118236  -3.718354808   1.440000000  10.056921376

 TOTAL NUMBER OF TESSERAE=      88
 SURFACE AREA=    41.95365472(A**2)    CAVITY VOLUME=     28.12679005 (A**3)
 CPU     0: STEP CPU TIME=     0.00 TOTAL CPU TIME=          2.0 (      0.0 MIN)
 TOTAL WALL CLOCK TIME=          2.7 SECONDS, CPU UTILIZATION IS    74.86%

          THE SOLUTE IS ENCLOSED IN ONE CAVITY
 DONE CHECKING SEPARATION.
 CPU     0: STEP CPU TIME=     0.00 TOTAL CPU TIME=          2.0 (      0.0 MIN)
 TOTAL WALL CLOCK TIME=          2.7 SECONDS, CPU UTILIZATION IS    74.86%

 ..... DONE SETTING UP PCM CALCULATION .....
 CPU     0: STEP CPU TIME=     0.00 TOTAL CPU TIME=          2.0 (      0.0 MIN)
 TOTAL WALL CLOCK TIME=          2.7 SECONDS, CPU UTILIZATION IS    74.86%
 NUCLEI-NUCLEAR CHARGE POLARIZATION ADJUSTMENT TO VNN=        0.0000000000

          --------------------------
           R-WB97X-D SCF CALCULATION
          --------------------------
         DENSITY MATRIX CONVERGENCE THRESHOLD=  1.00E-05
     COARSE -> FINE DFT GRID SWITCH THRESHOLD=  3.00E-04 (SWITCH IN $DFT)
                   HF -> DFT SWITCH THRESHOLD=  5.00E-03 (SWOFF IN $DFT)

 ITER EX DEM     TOTAL ENERGY        E CHANGE  DENSITY CHANGE    DIIS ERROR      VIR. SHIFT       DAMPING
          * * *   INITIATING DIIS PROCEDURE   * * *
   1  0  0      -76.3418523667   -76.3418523667   0.001200726   0.001373411     0.000000000     1.000000000
   2  1  0      -76.3418578648    -0.0000054981   0.000301010   0.000270107     0.000000000     1.000000000
   3  2  0      -76.3418580159    -0.0000001511   0.000118227   0.000269848     0.000000000     1.000000000
   4  3  0      -76.3418580922    -0.0000000763   0.000062647   0.000048510     0.000000000     1.000000000
   5  4  0      -76.3418580970    -0.0000000049   0.000013537   0.000005304     0.000000000     1.000000000
   6  5  0      -76.3418580972    -0.0000000002   0.000001894   0.000000821     0.000000000     1.000000000
   7  6  0      -76.3418580972    -0.0000000000   0.000000567   0.000000133     0.000000000     1.000000000

          -----------------
          DENSITY CONVERGED
          -----------------
     TIME TO FORM FOCK OPERATORS=       0.2 SECONDS (       0.0 SEC/ITER)
     TIME TO SOLVE SCF EQUATIONS=       0.0 SECONDS (       0.0 SEC/ITER)

          ----------------------------
          DFT-D PARAMETERS AND RESULTS
          ----------------------------
 C6 COEFFICIENTS USED:
       1 C6 FOR ELEMENT   1
  Z=  1 C6(AA)=    2.43
       1 C6 FOR ELEMENT   8
  Z=  8 C6(AA)=   12.14

 #          XYZ [AU]             R0(AA) [ANG.]  CN         C6(AA)     C8(AA)   C10(AA) [AU]
  1   6.70775   5.34790  -8.75093    8  1.220  1.988        12.1       245.0      6057.3
  2   5.80708   6.64518  -9.63958    1  0.910  0.995         2.4        29.4       434.7
  3   6.13762   5.40484  -7.02667    1  0.910  0.995         2.4        29.4       434.7

     MOLECULAR C6(AA) [AU] =        43.57

           DFT-D V2

 FUNCTIONAL: WB97X-D 

 PARAMETERS
 S6       :    1.0000
 RS6      :    1.1000
 USING CHAI-HEAD-GORDON DAMPING FUNCTION
 ALPHA6   :    6.0000

 EDISP /KCAL,AU:    -0.0186 -0.00002959

 E6    /KCAL :    -0.0186

 FINAL R-WB97X-D ENERGY IS      -76.3418876876 AFTER   7 ITERATIONS
 DFT EXCHANGE + CORRELATION ENERGY =        -6.4555401162
 TOTAL ELECTRON NUMBER             =        10.0000083390
 GRIMME'S DISPERSION ENERGY                     =       -0.0000295904
 ENERGY WITHOUT GRIMME'S DISPERSION CORRECTION IS      -76.3418580972

 Alpha HOMO=   -11.135749 eV, LUMO=    3.787368 eV, gap=   14.923117 eV
  
   PCM ASC=     -0.0114599732
   GCAVP  =      0.0000000000
   GDISP  =      0.0000000000
   GREP   =      0.0000000000
 ...... END OF RHF CALCULATION ......
 CPU     0: STEP CPU TIME=     0.17 TOTAL CPU TIME=          2.2 (      0.0 MIN)
 TOTAL WALL CLOCK TIME=          2.9 SECONDS, CPU UTILIZATION IS    75.74%

 .... DONE WITH PCM CONTRIBUTION TO GRADIENT ....
 CPU     0: STEP CPU TIME=     0.00 TOTAL CPU TIME=          2.2 (      0.0 MIN)
 TOTAL WALL CLOCK TIME=          2.9 SECONDS, CPU UTILIZATION IS    75.75%

          ----------------------------
          DFT-D PARAMETERS AND RESULTS
          ----------------------------
 C6 COEFFICIENTS USED:
       1 C6 FOR ELEMENT   1
  Z=  1 C6(AA)=    2.43
       1 C6 FOR ELEMENT   8
  Z=  8 C6(AA)=   12.14

 #          XYZ [AU]             R0(AA) [ANG.]  CN         C6(AA)     C8(AA)   C10(AA) [AU]
  1   6.70775   5.34790  -8.75093    8  1.220  1.988        12.1       245.0      6057.3
  2   5.80708   6.64518  -9.63958    1  0.910  0.995         2.4        29.4       434.7
  3   6.13762   5.40484  -7.02667    1  0.910  0.995         2.4        29.4       434.7

     MOLECULAR C6(AA) [AU] =        43.57

           DFT-D V2

 FUNCTIONAL: WB97X-D 

 PARAMETERS
 S6       :    1.0000
 RS6      :    1.1000
 USING CHAI-HEAD-GORDON DAMPING FUNCTION
 ALPHA6   :    6.0000

 EDISP /KCAL,AU:    -0.0186 -0.00002959

 E6    /KCAL :    -0.0186
 ..... END OF 1-ELECTRON GRADIENT ......
 CPU     0: STEP CPU TIME=     0.01 TOTAL CPU TIME=          2.2 (      0.0 MIN)
 TOTAL WALL CLOCK TIME=          2.9 SECONDS, CPU UTILIZATION IS    75.80%
 MEMORY FOR GRID POINT CONTRIBUTIONS TO THE DFT GRADIENT=    136230 WORDS.
 CPU     0: STEP CPU TIME=     0.02 TOTAL CPU TIME=          2.2 (      0.0 MIN)
 TOTAL WALL CLOCK TIME=          2.9 SECONDS, CPU UTILIZATION IS    75.96%
 ...... END OF 2-ELECTRON GRADIENT ......
 CPU     0: STEP CPU TIME=     0.00 TOTAL CPU TIME=          2.2 (      0.0 MIN)
 TOTAL WALL CLOCK TIME=          2.9 SECONDS, CPU UTILIZATION IS    75.95%

 UNITS ARE HARTREE/BOHR    E'X               E'Y               E'Z 
    1 O               -0.001493520       0.001926594      -0.001247195
    2 H                0.001408658      -0.001996873       0.001104745
    3 H                0.000084862       0.000070279       0.000142451
  $VIB   
          IVIB=   1 IATOM=   2 ICOORD=   1 E=      -76.3418876876
 -1.493520047E-03 1.926593930E-03-1.247195164E-03 1.408657570E-03-1.996873186E-03
  1.104744530E-03 8.486246495E-05 7.027924872E-05 1.424506247E-04
 -1.853798764E+00 1.708137761E+00 1.050826070E+00
1   ATOM  2
                                        -------------------
   COORD  2                             NUCLEAR COORDINATES
                                        -------------------
     VIB  1

                       ATOM             X              Y              Z

                 1  O                6.707747       5.347900      -8.750934
                 2  H                5.797082       6.655184      -9.639583
                 3  H                6.137619       5.404840      -7.026672
 ...... END OF ONE-ELECTRON INTEGRALS ......
 CPU     0: STEP CPU TIME=     0.00 TOTAL CPU TIME=          2.2 (      0.0 MIN)
 TOTAL WALL CLOCK TIME=          2.9 SECONDS, CPU UTILIZATION IS    75.96%
 TOTAL NUMBER OF NONZERO TWO-ELECTRON INTEGRALS =               34564
          8 INTEGRAL RECORDS WERE STORED ON DISK FILE 21.
  ...... END OF TWO-ELECTRON INTEGRALS .....
 CPU     0: STEP CPU TIME=     0.00 TOTAL CPU TIME=          2.2 (      0.0 MIN)
 TOTAL WALL CLOCK TIME=          3.0 SECONDS, CPU UTILIZATION IS    75.94%
 TOTAL NUMBER OF NONZERO TWO-ELECTRON INTEGRALS =               34641
          8 INTEGRAL RECORDS WERE STORED ON DISK FILE  8.
  ...... END OF TWO-ELECTRON INTEGRALS .....
 CPU     0: STEP CPU TIME=     0.00 TOTAL CPU TIME=          2.2 (      0.0 MIN)
 TOTAL WALL CLOCK TIME=          3.0 SECONDS, CPU UTILIZATION IS    75.93%

     ----------------------------
     INPUT FOR TESSERA DEFINITION
     ----------------------------
     NTSALL  =        60     MTHALL  =         4
     MTHAUT  =         0     AUTFRE  =    2.0000
     NTSFRZ  =        60     KEEPSM  =         0
     AREAKP  =   10.0000     BONDRY  =    1.0000
     AREATL  =    0.0100

     SPHERE     INITS       METHOD
          1        60       FIXPVA
          2        60       FIXPVA
          3        60       FIXPVA

     ------------------------------
      FIXPVA TESSELLATION FOR PCM
         PEIFENG SU AND HUI LI
     UNIVERSITY OF NEBRASKA-LINCOLN
     ------------------------------


     INPUT FOR CAVITY DEFINITION 
     ---------------------------
   ATOM               COORDINATES                RADIUS       EPS
      1      3.5496      2.8300     -4.6308      1.5000     78.3900
      2      3.0677      3.5218     -5.1010      1.2000     78.3900
      3      3.2479      2.8601     -3.7184      1.2000     78.3900

 MEMORY USED TO GENERATE CAVITY=    176782


 TOTAL NUMBER OF SPHERES=     3
 SPHERE           CENTER  (X,Y,Z) (A)               RADIUS (A)      AREA(A*A)
     1   3.549587368   2.829986773  -4.630795267   1.800000000  21.562304094
     2   3.067684061   3.521772090  -5.101047760   1.440000000  10.359815889
     3   3.247888095   2.860118236  -3.718354808   1.440000000  10.056444929

 TOTAL NUMBER OF TESSERAE=      88
 SURFACE AREA=    41.97856491(A**2)    CAVITY VOLUME=     28.16209910 (A**3)
 CPU     0: STEP CPU TIME=     0.00 TOTAL CPU TIME=          2.2 (      0.0 MIN)
 TOTAL WALL CLOCK TIME=          3.0 SECONDS, CPU UTILIZATION IS    75.94%

          THE SOLUTE IS ENCLOSED IN ONE CAVITY
 DONE CHECKING SEPARATION.
 CPU     0: STEP CPU TIME=     0.00 TOTAL CPU TIME=          2.2 (      0.0 MIN)
 TOTAL WALL CLOCK TIME=          3.0 SECONDS, CPU UTILIZATION IS    75.94%

 ..... DONE SETTING UP PCM CALCULATION .....
 CPU     0: STEP CPU TIME=     0.00 TOTAL CPU TIME=          2.2 (      0.0 MIN)
 TOTAL WALL CLOCK TIME=          3.0 SECONDS, CPU UTILIZATION IS    75.93%
 NUCLEI-NUCLEAR CHARGE POLARIZATION ADJUSTMENT TO VNN=        0.0000000000

          --------------------------
           R-WB97X-D SCF CALCULATION
          --------------------------
         DENSITY MATRIX CONVERGENCE THRESHOLD=  1.00E-05
     COARSE -> FINE DFT GRID SWITCH THRESHOLD=  3.00E-04 (SWITCH IN $DFT)
                   HF -> DFT SWITCH THRESHOLD=  5.00E-03 (SWOFF IN $DFT)

 ITER EX DEM     TOTAL ENERGY        E CHANGE  DENSITY CHANGE    DIIS ERROR      VIR. SHIFT       DAMPING
          * * *   INITIATING DIIS PROCEDURE   * * *
   1  0  0      -76.3418443145   -76.3418443145   0.001442191   0.001779498     0.000000000     1.000000000
   2  1  0      -76.3418513097    -0.0000069952   0.000258307   0.000381331     0.000000000     1.000000000
   3  2  0      -76.3418514869    -0.0000001772   0.000154728   0.000355916     0.000000000     1.000000000
   4  3  0      -76.3418516150    -0.0000001281   0.000059805   0.000054946     0.000000000     1.000000000
   5  4  0      -76.3418516221    -0.0000000071   0.000015686   0.000007370     0.000000000     1.000000000
   6  5  0      -76.3418516224    -0.0000000003   0.000002087   0.000001050     0.000000000     1.000000000
   7  6  0      -76.3418516224    -0.0000000000   0.000000517   0.000000164     0.000000000     1.000000000

          -----------------
          DENSITY CONVERGED
          -----------------
     TIME TO FORM FOCK OPERATORS=       0.2 SECONDS (       0.0 SEC/ITER)
     TIME TO SOLVE SCF EQUATIONS=       0.0 SECONDS (       0.0 SEC/ITER)

          ----------------------------
          DFT-D PARAMETERS AND RESULTS
          ----------------------------
 C6 COEFFICIENTS USED:
       1 C6 FOR ELEMENT   1
  Z=  1 C6(AA)=    2.43
       1 C6 FOR ELEMENT   8
  Z=  8 C6(AA)=   12.14

 #          XYZ [AU]             R0(AA) [ANG.]  CN         C6(AA)     C8(AA)   C10(AA) [AU]
  1   6.70775   5.34790  -8.75093    8  1.220  1.987        12.1       245.0      6057.3
  2   5.79708   6.65518  -9.63958    1  0.910  0.994         2.4        29.4       434.7
  3   6.13762   5.40484  -7.02667    1  0.910  0.995         2.4        29.4       434.7

     MOLECULAR C6(AA) [AU] =        43.57

           DFT-D V2

 FUNCTIONAL: WB97X-D 

 PARAMETERS
 S6       :    1.0000
 RS6      :    1.1000
 USING CHAI-HEAD-GORDON DAMPING FUNCTION
 ALPHA6   :    6.0000

 EDISP /KCAL,AU:    -0.0188 -0.00002993

 E6    /KCAL :    -0.0188

 FINAL R-WB97X-D ENERGY IS      -76.3418815509 AFTER   7 ITERATIONS
 DFT EXCHANGE + CORRELATION ENERGY =        -6.4532061714
 TOTAL ELECTRON NUMBER             =        10.0000083393
 GRIMME'S DISPERSION ENERGY                     =       -0.0000299285
 ENERGY WITHOUT GRIMME'S DISPERSION CORRECTION IS      -76.3418516224

 Alpha HOMO=   -11.129731 eV, LUMO=    3.776505 eV, gap=   14.906236 eV
  
   PCM ASC=     -0.0114734867
   GCAVP  =      0.0000000000
   GDISP  =      0.0000000000
   GREP   =      0.0000000000
 ...... END OF RHF CALCULATION ......
 CPU     0: STEP CPU TIME=     0.18 TOTAL CPU TIME=          2.4 (      0.0 MIN)
 TOTAL WALL CLOCK TIME=          3.2 SECONDS, CPU UTILIZATION IS    76.68%

 .... DONE WITH PCM CONTRIBUTION TO GRADIENT ....
 CPU     0: STEP CPU TIME=     0.00 TOTAL CPU TIME=          2.4 (      0.0 MIN)
 TOTAL WALL CLOCK TIME=          3.2 SECONDS, CPU UTILIZATION IS    76.68%

          ----------------------------
          DFT-D PARAMETERS AND RESULTS
          ----------------------------
 C6 COEFFICIENTS USED:
       1 C6 FOR ELEMENT   1
  Z=  1 C6(AA)=    2.43
       1 C6 FOR ELEMENT   8
  Z=  8 C6(AA)=   12.14

 #          XYZ [AU]             R0(AA) [ANG.]  CN         C6(AA)     C8(AA)   C10(AA) [AU]
  1   6.70775   5.34790  -8.75093    8  1.220  1.987        12.1       245.0      6057.3
  2   5.79708   6.65518  -9.63958    1  0.910  0.994         2.4        29.4       434.7
  3   6.13762   5.40484  -7.02667    1  0.910  0.995         2.4        29.4       434.7

     MOLECULAR C6(AA) [AU] =        43.57

           DFT-D V2

 FUNCTIONAL: WB97X-D 

 PARAMETERS
 S6       :    1.0000
 RS6      :    1.1000
 USING CHAI-HEAD-GORDON DAMPING FUNCTION
 ALPHA6   :    6.0000

 EDISP /KCAL,AU:    -0.0188 -0.00002993

 E6    /KCAL :    -0.0188
 ..... END OF 1-ELECTRON GRADIENT ......
 CPU     0: STEP CPU TIME=     0.01 TOTAL CPU TIME=          2.4 (      0.0 MIN)
 TOTAL WALL CLOCK TIME=          3.2 SECONDS, CPU UTILIZATION IS    76.72%
 MEMORY FOR GRID POINT CONTRIBUTIONS TO THE DFT GRADIENT=    136230 WORDS.
 CPU     0: STEP CPU TIME=     0.02 TOTAL CPU TIME=          2.5 (      0.0 MIN)
 TOTAL WALL CLOCK TIME=          3.2 SECONDS, CPU UTILIZATION IS    76.86%
 ...... END OF 2-ELECTRON GRADIENT ......
 CPU     0: STEP CPU TIME=     0.00 TOTAL CPU TIME=          2.5 (      0.0 MIN)
 TOTAL WALL CLOCK TIME=          3.2 SECONDS, CPU UTILIZATION IS    76.86%

 UNITS ARE HARTREE/BOHR    E'X               E'Y               E'Z 
    1 O                0.001846058      -0.002895991       0.002063892
    2 H               -0.001884738       0.002696471      -0.001977100
    3 H                0.000038680       0.000199520      -0.000086792
  $VIB   
          IVIB=   1 IATOM=   2 ICOORD=   2 E=      -76.3418815509
  1.846058313E-03-2.895991366E-03 2.063891964E-03-1.884738288E-03 2.696471219E-03
 -1.977099858E-03 3.867996248E-05 1.995201399E-04-8.679211610E-05
 -1.860575621E+00 1.713785280E+00 1.052355375E+00
1   ATOM  2
                                        -------------------
   COORD  3                             NUCLEAR COORDINATES
                                        -------------------
     VIB  1

                       ATOM             X              Y              Z

                 1  O                6.707747       5.347900      -8.750934
                 2  H                5.797082       6.645184      -9.629583
                 3  H                6.137619       5.404840      -7.026672
 ...... END OF ONE-ELECTRON INTEGRALS ......
 CPU     0: STEP CPU TIME=     0.00 TOTAL CPU TIME=          2.5 (      0.0 MIN)
 TOTAL WALL CLOCK TIME=          3.2 SECONDS, CPU UTILIZATION IS    76.86%
 TOTAL NUMBER OF NONZERO TWO-ELECTRON INTEGRALS =               34559
          8 INTEGRAL RECORDS WERE STORED ON DISK FILE 21.
  ...... END OF TWO-ELECTRON INTEGRALS .....
 CPU     0: STEP CPU TIME=     0.00 TOTAL CPU TIME=          2.5 (      0.0 MIN)
 TOTAL WALL CLOCK TIME=          3.2 SECONDS, CPU UTILIZATION IS    76.85%
 TOTAL NUMBER OF NONZERO TWO-ELECTRON INTEGRALS =               34641
          8 INTEGRAL RECORDS WERE STORED ON DISK FILE  8.
  ...... END OF TWO-ELECTRON INTEGRALS .....
 CPU     0: STEP CPU TIME=     0.00 TOTAL CPU TIME=          2.5 (      0.0 MIN)
 TOTAL WALL CLOCK TIME=          3.2 SECONDS, CPU UTILIZATION IS    76.84%

     ----------------------------
     INPUT FOR TESSERA DEFINITION
     ----------------------------
     NTSALL  =        60     MTHALL  =         4
     MTHAUT  =         0     AUTFRE  =    2.0000
     NTSFRZ  =        60     KEEPSM  =         0
     AREAKP  =   10.0000     BONDRY  =    1.0000
     AREATL  =    0.0100

     SPHERE     INITS       METHOD
          1        60       FIXPVA
          2        60       FIXPVA
          3        60       FIXPVA

     ------------------------------
      FIXPVA TESSELLATION FOR PCM
         PEIFENG SU AND HUI LI
     UNIVERSITY OF NEBRASKA-LINCOLN
     ------------------------------


     INPUT FOR CAVITY DEFINITION 
     ---------------------------
   ATOM               COORDINATES                RADIUS       EPS
      1      3.5496      2.8300     -4.6308      1.5000     78.3900
      2      3.0677      3.5165     -5.0958      1.2000     78.3900
      3      3.2479      2.8601     -3.7184      1.2000     78.3900

 MEMORY USED TO GENERATE CAVITY=    176782


 TOTAL NUMBER OF SPHERES=     3
 SPHERE           CENTER  (X,Y,Z) (A)               RADIUS (A)      AREA(A*A)
     1   3.549587368   2.829986773  -4.630795267   1.800000000  21.566028853
     2   3.067684061   3.516480318  -5.095755987   1.440000000  10.309419271
     3   3.247888095   2.860118236  -3.718354808   1.440000000  10.055473369

 TOTAL NUMBER OF TESSERAE=      88
 SURFACE AREA=    41.93092149(A**2)    CAVITY VOLUME=     28.07374661 (A**3)
 CPU     0: STEP CPU TIME=     0.00 TOTAL CPU TIME=          2.5 (      0.0 MIN)
 TOTAL WALL CLOCK TIME=          3.2 SECONDS, CPU UTILIZATION IS    76.85%

          THE SOLUTE IS ENCLOSED IN ONE CAVITY
 DONE CHECKING SEPARATION.
 CPU     0: STEP CPU TIME=     0.00 TOTAL CPU TIME=          2.5 (      0.0 MIN)
 TOTAL WALL CLOCK TIME=          3.2 SECONDS, CPU UTILIZATION IS    76.85%

 ..... DONE SETTING UP PCM CALCULATION .....
 CPU     0: STEP CPU TIME=     0.00 TOTAL CPU TIME=          2.5 (      0.0 MIN)
 TOTAL WALL CLOCK TIME=          3.2 SECONDS, CPU UTILIZATION IS    76.84%
 NUCLEI-NUCLEAR CHARGE POLARIZATION ADJUSTMENT TO VNN=        0.0000000000

          --------------------------
           R-WB97X-D SCF CALCULATION
          --------------------------
         DENSITY MATRIX CONVERGENCE THRESHOLD=  1.00E-05
     COARSE -> FINE DFT GRID SWITCH THRESHOLD=  3.00E-04 (SWITCH IN $DFT)
                   HF -> DFT SWITCH THRESHOLD=  5.00E-03 (SWOFF IN $DFT)

 ITER EX DEM     TOTAL ENERGY        E CHANGE  DENSITY CHANGE    DIIS ERROR      VIR. SHIFT       DAMPING
          * * *   INITIATING DIIS PROCEDURE   * * *
   1  0  0      -76.3418529259   -76.3418529259   0.001149060   0.001475639     0.000000000     1.000000000
   2  1  0      -76.3418579625    -0.0000050366   0.000191148   0.000258526     0.000000000     1.000000000
   3  2  0      -76.3418580682    -0.0000001058   0.000109441   0.000255798     0.000000000     1.000000000
   4  3  0      -76.3418581325    -0.0000000643   0.000027057   0.000049563     0.000000000     1.000000000
   5  4  0      -76.3418581362    -0.0000000037   0.000006491   0.000005507     0.000000000     1.000000000
   6  5  0      -76.3418581364    -0.0000000001   0.000001187   0.000000712     0.000000000     1.000000000

          -----------------
          DENSITY CONVERGED
          -----------------
     TIME TO FORM FOCK OPERATORS=       0.1 SECONDS (       0.0 SEC/ITER)
     TIME TO SOLVE SCF EQUATIONS=       0.0 SECONDS (       0.0 SEC/ITER)

          ----------------------------
          DFT-D PARAMETERS AND RESULTS
          ----------------------------
 C6 COEFFICIENTS USED:
       1 C6 FOR ELEMENT   1
  Z=  1 C6(AA)=    2.43
       1 C6 FOR ELEMENT   8
  Z=  8 C6(AA)=   12.14

 #          XYZ [AU]             R0(AA) [ANG.]  CN         C6(AA)     C8(AA)   C10(AA) [AU]
  1   6.70775   5.34790  -8.75093    8  1.220  1.988        12.1       245.0      6057.3
  2   5.79708   6.64518  -9.62958    1  0.910  0.995         2.4        29.4       434.7
  3   6.13762   5.40484  -7.02667    1  0.910  0.995         2.4        29.4       434.7

     MOLECULAR C6(AA) [AU] =        43.57

           DFT-D V2

 FUNCTIONAL: WB97X-D 

 PARAMETERS
 S6       :    1.0000
 RS6      :    1.1000
 USING CHAI-HEAD-GORDON DAMPING FUNCTION
 ALPHA6   :    6.0000

 EDISP /KCAL,AU:    -0.0183 -0.00002914

 E6    /KCAL :    -0.0183

 FINAL R-WB97X-D ENERGY IS      -76.3418872781 AFTER   6 ITERATIONS
 DFT EXCHANGE + CORRELATION ENERGY =        -6.4555764133
 TOTAL ELECTRON NUMBER             =        10.0000078322
 GRIMME'S DISPERSION ENERGY                     =       -0.0000291417
 ENERGY WITHOUT GRIMME'S DISPERSION CORRECTION IS      -76.3418581364

 Alpha HOMO=   -11.137451 eV, LUMO=    3.783463 eV, gap=   14.920914 eV
  
   PCM ASC=     -0.0114285003
   GCAVP  =      0.0000000000
   GDISP  =      0.0000000000
   GREP   =      0.0000000000
 ...... END OF RHF CALCULATION ......
 CPU     0: STEP CPU TIME=     0.15 TOTAL CPU TIME=          2.6 (      0.0 MIN)
 TOTAL WALL CLOCK TIME=          3.4 SECONDS, CPU UTILIZATION IS    77.41%

 .... DONE WITH PCM CONTRIBUTION TO GRADIENT ....
 CPU     0: STEP CPU TIME=     0.00 TOTAL CPU TIME=          2.6 (      0.0 MIN)
 TOTAL WALL CLOCK TIME=          3.4 SECONDS, CPU UTILIZATION IS    77.41%

          ----------------------------
          DFT-D PARAMETERS AND RESULTS
          ----------------------------
 C6 COEFFICIENTS USED:
       1 C6 FOR ELEMENT   1
  Z=  1 C6(AA)=    2.43
       1 C6 FOR ELEMENT   8
  Z=  8 C6(AA)=   12.14

 #          XYZ [AU]             R0(AA) [ANG.]  CN         C6(AA)     C8(AA)   C10(AA) [AU]
  1   6.70775   5.34790  -8.75093    8  1.220  1.988        12.1       245.0      6057.3
  2   5.79708   6.64518  -9.62958    1  0.910  0.995         2.4        29.4       434.7
  3   6.13762   5.40484  -7.02667    1  0.910  0.995         2.4        29.4       434.7

     MOLECULAR C6(AA) [AU] =        43.57

           DFT-D V2

 FUNCTIONAL: WB97X-D 

 PARAMETERS
 S6       :    1.0000
 RS6      :    1.1000
 USING CHAI-HEAD-GORDON DAMPING FUNCTION
 ALPHA6   :    6.0000

 EDISP /KCAL,AU:    -0.0183 -0.00002914

 E6    /KCAL :    -0.0183
 ..... END OF 1-ELECTRON GRADIENT ......
 CPU     0: STEP CPU TIME=     0.01 TOTAL CPU TIME=          2.6 (      0.0 MIN)
 TOTAL WALL CLOCK TIME=          3.4 SECONDS, CPU UTILIZATION IS    77.36%
 MEMORY FOR GRID POINT CONTRIBUTIONS TO THE DFT GRADIENT=    136230 WORDS.
 CPU     0: STEP CPU TIME=     0.03 TOTAL CPU TIME=          2.6 (      0.0 MIN)
 TOTAL WALL CLOCK TIME=          3.4 SECONDS, CPU UTILIZATION IS    77.47%
 ...... END OF 2-ELECTRON GRADIENT ......
 CPU     0: STEP CPU TIME=     0.00 TOTAL CPU TIME=          2.6 (      0.0 MIN)
 TOTAL WALL CLOCK TIME=          3.4 SECONDS, CPU UTILIZATION IS    77.47%

 UNITS ARE HARTREE/BOHR    E'X               E'Y               E'Z 
    1 O               -0.001014108       0.001458704      -0.001469789
    2 H                0.001228759      -0.001963674       0.001613910
    3 H               -0.000214651       0.000504970      -0.000144121
  $VIB   
          IVIB=   1 IATOM=   2 ICOORD=   3 E=      -76.3418872781
 -1.014107612E-03 1.458704237E-03-1.469789028E-03 1.228758513E-03-1.963673989E-03
  1.613910291E-03-2.146509135E-04 5.049697447E-04-1.441212720E-04
 -1.862703224E+00 1.704727746E+00 1.061430905E+00
1   ATOM  3
                                        -------------------
   COORD  1                             NUCLEAR COORDINATES
                                        -------------------
     VIB  1

                       ATOM             X              Y              Z

                 1  O                6.707747       5.347900      -8.750934
                 2  H                5.797082       6.645184      -9.639583
                 3  H                6.147619       5.404840      -7.026672
 ...... END OF ONE-ELECTRON INTEGRALS ......
 CPU     0: STEP CPU TIME=     0.00 TOTAL CPU TIME=          2.6 (      0.0 MIN)
 TOTAL WALL CLOCK TIME=          3.4 SECONDS, CPU UTILIZATION IS    77.45%
 TOTAL NUMBER OF NONZERO TWO-ELECTRON INTEGRALS =               34565
          8 INTEGRAL RECORDS WERE STORED ON DISK FILE 21.
  ...... END OF TWO-ELECTRON INTEGRALS .....
 CPU     0: STEP CPU TIME=     0.00 TOTAL CPU TIME=          2.6 (      0.0 MIN)
 TOTAL WALL CLOCK TIME=          3.4 SECONDS, CPU UTILIZATION IS    77.43%
 TOTAL NUMBER OF NONZERO TWO-ELECTRON INTEGRALS =               34641
          8 INTEGRAL RECORDS WERE STORED ON DISK FILE  8.
  ...... END OF TWO-ELECTRON INTEGRALS .....
 CPU     0: STEP CPU TIME=     0.00 TOTAL CPU TIME=          2.6 (      0.0 MIN)
 TOTAL WALL CLOCK TIME=          3.4 SECONDS, CPU UTILIZATION IS    77.41%

     ----------------------------
     INPUT FOR TESSERA DEFINITION
     ----------------------------
     NTSALL  =        60     MTHALL  =         4
     MTHAUT  =         0     AUTFRE  =    2.0000
     NTSFRZ  =        60     KEEPSM  =         0
     AREAKP  =   10.0000     BONDRY  =    1.0000
     AREATL  =    0.0100

     SPHERE     INITS       METHOD
          1        60       FIXPVA
          2        60       FIXPVA
          3        60       FIXPVA

     ------------------------------
      FIXPVA TESSELLATION FOR PCM
         PEIFENG SU AND HUI LI
     UNIVERSITY OF NEBRASKA-LINCOLN
     ------------------------------


     INPUT FOR CAVITY DEFINITION 
     ---------------------------
   ATOM               COORDINATES                RADIUS       EPS
      1      3.5496      2.8300     -4.6308      1.5000     78.3900
      2      3.0677      3.5165     -5.1010      1.2000     78.3900
      3      3.2532      2.8601     -3.7184      1.2000     78.3900

 MEMORY USED TO GENERATE CAVITY=    176782


 TOTAL NUMBER OF SPHERES=     3
 SPHERE           CENTER  (X,Y,Z) (A)               RADIUS (A)      AREA(A*A)
     1   3.549587368   2.829986773  -4.630795267   1.800000000  21.514200131
     2   3.067684061   3.516480318  -5.101047760   1.440000000  10.341346073
     3   3.253179867   2.860118236  -3.718354808   1.440000000  10.091929963

 TOTAL NUMBER OF TESSERAE=      88
 SURFACE AREA=    41.94747617(A**2)    CAVITY VOLUME=     28.14494656 (A**3)
 CPU     0: STEP CPU TIME=     0.00 TOTAL CPU TIME=          2.7 (      0.0 MIN)
 TOTAL WALL CLOCK TIME=          3.4 SECONDS, CPU UTILIZATION IS    77.42%

          THE SOLUTE IS ENCLOSED IN ONE CAVITY
 DONE CHECKING SEPARATION.
 CPU     0: STEP CPU TIME=     0.00 TOTAL CPU TIME=          2.7 (      0.0 MIN)
 TOTAL WALL CLOCK TIME=          3.4 SECONDS, CPU UTILIZATION IS    77.42%

 ..... DONE SETTING UP PCM CALCULATION .....
 CPU     0: STEP CPU TIME=     0.00 TOTAL CPU TIME=          2.7 (      0.0 MIN)
 TOTAL WALL CLOCK TIME=          3.4 SECONDS, CPU UTILIZATION IS    77.41%
 NUCLEI-NUCLEAR CHARGE POLARIZATION ADJUSTMENT TO VNN=        0.0000000000

          --------------------------
           R-WB97X-D SCF CALCULATION
          --------------------------
         DENSITY MATRIX CONVERGENCE THRESHOLD=  1.00E-05
     COARSE -> FINE DFT GRID SWITCH THRESHOLD=  3.00E-04 (SWITCH IN $DFT)
                   HF -> DFT SWITCH THRESHOLD=  5.00E-03 (SWOFF IN $DFT)

 ITER EX DEM     TOTAL ENERGY        E CHANGE  DENSITY CHANGE    DIIS ERROR      VIR. SHIFT       DAMPING
          * * *   INITIATING DIIS PROCEDURE   * * *
   1  0  0      -76.3418569655   -76.3418569655   0.001108600   0.001015126     0.000000000     1.000000000
   2  1  0      -76.3418615483    -0.0000045828   0.000315613   0.000168962     0.000000000     1.000000000
   3  2  0      -76.3418616888    -0.0000001405   0.000081469   0.000180606     0.000000000     1.000000000
   4  3  0      -76.3418617244    -0.0000000356   0.000057440   0.000044744     0.000000000     1.000000000
   5  4  0      -76.3418617280    -0.0000000035   0.000010708   0.000003442     0.000000000     1.000000000
   6  5  0      -76.3418617281    -0.0000000001   0.000001484   0.000000559     0.000000000     1.000000000
   7  6  0      -76.3418617281    -0.0000000000   0.000000449   0.000000096     0.000000000     1.000000000

          -----------------
          DENSITY CONVERGED
          -----------------
     TIME TO FORM FOCK OPERATORS=       0.2 SECONDS (       0.0 SEC/ITER)
     TIME TO SOLVE SCF EQUATIONS=       0.0 SECONDS (       0.0 SEC/ITER)

          ----------------------------
          DFT-D PARAMETERS AND RESULTS
          ----------------------------
 C6 COEFFICIENTS USED:
       1 C6 FOR ELEMENT   1
  Z=  1 C6(AA)=    2.43
       1 C6 FOR ELEMENT   8
  Z=  8 C6(AA)=   12.14

 #          XYZ [AU]             R0(AA) [ANG.]  CN         C6(AA)     C8(AA)   C10(AA) [AU]
  1   6.70775   5.34790  -8.75093    8  1.220  1.988        12.1       245.0      6057.3
  2   5.79708   6.64518  -9.63958    1  0.910  0.995         2.4        29.4       434.7
  3   6.14762   5.40484  -7.02667    1  0.910  0.995         2.4        29.4       434.7

     MOLECULAR C6(AA) [AU] =        43.57

           DFT-D V2

 FUNCTIONAL: WB97X-D 

 PARAMETERS
 S6       :    1.0000
 RS6      :    1.1000
 USING CHAI-HEAD-GORDON DAMPING FUNCTION
 ALPHA6   :    6.0000

 EDISP /KCAL,AU:    -0.0187 -0.00002973

 E6    /KCAL :    -0.0187

 FINAL R-WB97X-D ENERGY IS      -76.3418914575 AFTER   7 ITERATIONS
 DFT EXCHANGE + CORRELATION ENERGY =        -6.4551655946
 TOTAL ELECTRON NUMBER             =        10.0000083485
 GRIMME'S DISPERSION ENERGY                     =       -0.0000297294
 ENERGY WITHOUT GRIMME'S DISPERSION CORRECTION IS      -76.3418617281

 Alpha HOMO=   -11.134295 eV, LUMO=    3.786618 eV, gap=   14.920913 eV
  
   PCM ASC=     -0.0114895654
   GCAVP  =      0.0000000000
   GDISP  =      0.0000000000
   GREP   =      0.0000000000
 ...... END OF RHF CALCULATION ......
 CPU     0: STEP CPU TIME=     0.17 TOTAL CPU TIME=          2.8 (      0.0 MIN)
 TOTAL WALL CLOCK TIME=          3.6 SECONDS, CPU UTILIZATION IS    77.94%

 .... DONE WITH PCM CONTRIBUTION TO GRADIENT ....
 CPU     0: STEP CPU TIME=     0.00 TOTAL CPU TIME=          2.8 (      0.0 MIN)
 TOTAL WALL CLOCK TIME=          3.6 SECONDS, CPU UTILIZATION IS    77.94%

          ----------------------------
          DFT-D PARAMETERS AND RESULTS
          ----------------------------
 C6 COEFFICIENTS USED:
       1 C6 FOR ELEMENT   1
  Z=  1 C6(AA)=    2.43
       1 C6 FOR ELEMENT   8
  Z=  8 C6(AA)=   12.14

 #          XYZ [AU]             R0(AA) [ANG.]  CN         C6(AA)     C8(AA)   C10(AA) [AU]
  1   6.70775   5.34790  -8.75093    8  1.220  1.988        12.1       245.0      6057.3
  2   5.79708   6.64518  -9.63958    1  0.910  0.995         2.4        29.4       434.7
  3   6.14762   5.40484  -7.02667    1  0.910  0.995         2.4        29.4       434.7

     MOLECULAR C6(AA) [AU] =        43.57

           DFT-D V2

 FUNCTIONAL: WB97X-D 

 PARAMETERS
 S6       :    1.0000
 RS6      :    1.1000
 USING CHAI-HEAD-GORDON DAMPING FUNCTION
 ALPHA6   :    6.0000

 EDISP /KCAL,AU:    -0.0187 -0.00002973

 E6    /KCAL :    -0.0187
 ..... END OF 1-ELECTRON GRADIENT ......
 CPU     0: STEP CPU TIME=     0.01 TOTAL CPU TIME=          2.8 (      0.0 MIN)
 TOTAL WALL CLOCK TIME=          3.6 SECONDS, CPU UTILIZATION IS    77.99%
 MEMORY FOR GRID POINT CONTRIBUTIONS TO THE DFT GRADIENT=    136230 WORDS.
 CPU     0: STEP CPU TIME=     0.02 TOTAL CPU TIME=          2.9 (      0.0 MIN)
 TOTAL WALL CLOCK TIME=          3.7 SECONDS, CPU UTILIZATION IS    78.10%
 ...... END OF 2-ELECTRON GRADIENT ......
 CPU     0: STEP CPU TIME=     0.00 TOTAL CPU TIME=          2.9 (      0.0 MIN)
 TOTAL WALL CLOCK TIME=          3.7 SECONDS, CPU UTILIZATION IS    78.10%

 UNITS ARE HARTREE/BOHR    E'X               E'Y               E'Z 
    1 O               -0.000706979       0.000076535       0.001844846
    2 H                0.000068710      -0.000043065      -0.000355013
    3 H                0.000638269      -0.000033470      -0.001489833
  $VIB   
          IVIB=   1 IATOM=   3 ICOORD=   1 E=      -76.3418914575
 -7.069793122E-04 7.653482012E-05 1.844845837E-03 6.871021096E-05-4.306509758E-05
 -3.550126979E-04 6.382690888E-04-3.346972961E-05-1.489833148E-03
 -1.853223088E+00 1.706634101E+00 1.053853584E+00
1   ATOM  3
                                        -------------------
   COORD  2                             NUCLEAR COORDINATES
                                        -------------------
     VIB  1

                       ATOM             X              Y              Z

                 1  O                6.707747       5.347900      -8.750934
                 2  H                5.797082       6.645184      -9.639583
                 3  H                6.137619       5.414840      -7.026672
 ...... END OF ONE-ELECTRON INTEGRALS ......
 CPU     0: STEP CPU TIME=     0.00 TOTAL CPU TIME=          2.9 (      0.0 MIN)
 TOTAL WALL CLOCK TIME=          3.7 SECONDS, CPU UTILIZATION IS    78.10%
 TOTAL NUMBER OF NONZERO TWO-ELECTRON INTEGRALS =               34575
          8 INTEGRAL RECORDS WERE STORED ON DISK FILE 21.
  ...... END OF TWO-ELECTRON INTEGRALS .....
 CPU     0: STEP CPU TIME=     0.00 TOTAL CPU TIME=          2.9 (      0.0 MIN)
 TOTAL WALL CLOCK TIME=          3.7 SECONDS, CPU UTILIZATION IS    78.08%
 TOTAL NUMBER OF NONZERO TWO-ELECTRON INTEGRALS =               34641
          8 INTEGRAL RECORDS WERE STORED ON DISK FILE  8.
  ...... END OF TWO-ELECTRON INTEGRALS .....
 CPU     0: STEP CPU TIME=     0.00 TOTAL CPU TIME=          2.9 (      0.0 MIN)
 TOTAL WALL CLOCK TIME=          3.7 SECONDS, CPU UTILIZATION IS    78.07%

     ----------------------------
     INPUT FOR TESSERA DEFINITION
     ----------------------------
     NTSALL  =        60     MTHALL  =         4
     MTHAUT  =         0     AUTFRE  =    2.0000
     NTSFRZ  =        60     KEEPSM  =         0
     AREAKP  =   10.0000     BONDRY  =    1.0000
     AREATL  =    0.0100

     SPHERE     INITS       METHOD
          1        60       FIXPVA
          2        60       FIXPVA
          3        60       FIXPVA

     ------------------------------
      FIXPVA TESSELLATION FOR PCM
         PEIFENG SU AND HUI LI
     UNIVERSITY OF NEBRASKA-LINCOLN
     ------------------------------


     INPUT FOR CAVITY DEFINITION 
     ---------------------------
   ATOM               COORDINATES                RADIUS       EPS
      1      3.5496      2.8300     -4.6308      1.5000     78.3900
      2      3.0677      3.5165     -5.1010      1.2000     78.3900
      3      3.2479      2.8654     -3.7184      1.2000     78.3900

 MEMORY USED TO GENERATE CAVITY=    176782


 TOTAL NUMBER OF SPHERES=     3
 SPHERE           CENTER  (X,Y,Z) (A)               RADIUS (A)      AREA(A*A)
     1   3.549587368   2.829986773  -4.630795267   1.800000000  21.595674123
     2   3.067684061   3.516480318  -5.101047760   1.440000000  10.336882675
     3   3.247888095   2.865410008  -3.718354808   1.440000000  10.059175850

 TOTAL NUMBER OF TESSERAE=      88
 SURFACE AREA=    41.99173265(A**2)    CAVITY VOLUME=     28.08561468 (A**3)
 CPU     0: STEP CPU TIME=     0.00 TOTAL CPU TIME=          2.9 (      0.0 MIN)
 TOTAL WALL CLOCK TIME=          3.7 SECONDS, CPU UTILIZATION IS    78.08%

          THE SOLUTE IS ENCLOSED IN ONE CAVITY
 DONE CHECKING SEPARATION.
 CPU     0: STEP CPU TIME=     0.00 TOTAL CPU TIME=          2.9 (      0.0 MIN)
 TOTAL WALL CLOCK TIME=          3.7 SECONDS, CPU UTILIZATION IS    78.08%

 ..... DONE SETTING UP PCM CALCULATION .....
 CPU     0: STEP CPU TIME=     0.00 TOTAL CPU TIME=          2.9 (      0.0 MIN)
 TOTAL WALL CLOCK TIME=          3.7 SECONDS, CPU UTILIZATION IS    78.07%
 NUCLEI-NUCLEAR CHARGE POLARIZATION ADJUSTMENT TO VNN=        0.0000000000

          --------------------------
           R-WB97X-D SCF CALCULATION
          --------------------------
         DENSITY MATRIX CONVERGENCE THRESHOLD=  1.00E-05
     COARSE -> FINE DFT GRID SWITCH THRESHOLD=  3.00E-04 (SWITCH IN $DFT)
                   HF -> DFT SWITCH THRESHOLD=  5.00E-03 (SWOFF IN $DFT)

 ITER EX DEM     TOTAL ENERGY        E CHANGE  DENSITY CHANGE    DIIS ERROR      VIR. SHIFT       DAMPING
          * * *   INITIATING DIIS PROCEDURE   * * *
   1  0  0      -76.3418584808   -76.3418584808   0.001256988   0.001019726     0.000000000     1.000000000
   2  1  0      -76.3418623439    -0.0000038630   0.000287419   0.000145895     0.000000000     1.000000000
   3  2  0      -76.3418624728    -0.0000001289   0.000080221   0.000026841     0.000000000     1.000000000
   4  3  0      -76.3418624767    -0.0000000039   0.000012631   0.000028814     0.000000000     1.000000000
   5  4  0      -76.3418624776    -0.0000000009   0.000007362   0.000003535     0.000000000     1.000000000
   6  5  0      -76.3418624776    -0.0000000000   0.000001124   0.000000415     0.000000000     1.000000000

          -----------------
          DENSITY CONVERGED
          -----------------
     TIME TO FORM FOCK OPERATORS=       0.1 SECONDS (       0.0 SEC/ITER)
     TIME TO SOLVE SCF EQUATIONS=       0.0 SECONDS (       0.0 SEC/ITER)

          ----------------------------
          DFT-D PARAMETERS AND RESULTS
          ----------------------------
 C6 COEFFICIENTS USED:
       1 C6 FOR ELEMENT   1
  Z=  1 C6(AA)=    2.43
       1 C6 FOR ELEMENT   8
  Z=  8 C6(AA)=   12.14

 #          XYZ [AU]             R0(AA) [ANG.]  CN         C6(AA)     C8(AA)   C10(AA) [AU]
  1   6.70775   5.34790  -8.75093    8  1.220  1.988        12.1       245.0      6057.3
  2   5.79708   6.64518  -9.63958    1  0.910  0.995         2.4        29.4       434.7
  3   6.13762   5.41484  -7.02667    1  0.910  0.995         2.4        29.4       434.7

     MOLECULAR C6(AA) [AU] =        43.57

           DFT-D V2

 FUNCTIONAL: WB97X-D 

 PARAMETERS
 S6       :    1.0000
 RS6      :    1.1000
 USING CHAI-HEAD-GORDON DAMPING FUNCTION
 ALPHA6   :    6.0000

 EDISP /KCAL,AU:    -0.0185 -0.00002942

 E6    /KCAL :    -0.0185

 FINAL R-WB97X-D ENERGY IS      -76.3418918998 AFTER   6 ITERATIONS
 DFT EXCHANGE + CORRELATION ENERGY =        -6.4545547763
 TOTAL ELECTRON NUMBER             =        10.0000085452
 GRIMME'S DISPERSION ENERGY                     =       -0.0000294222
 ENERGY WITHOUT GRIMME'S DISPERSION CORRECTION IS      -76.3418624776

 Alpha HOMO=   -11.134736 eV, LUMO=    3.779458 eV, gap=   14.914194 eV
  
   PCM ASC=     -0.0114144964
   GCAVP  =      0.0000000000
   GDISP  =      0.0000000000
   GREP   =      0.0000000000
 ...... END OF RHF CALCULATION ......
 CPU     0: STEP CPU TIME=     0.15 TOTAL CPU TIME=          3.0 (      0.1 MIN)
 TOTAL WALL CLOCK TIME=          3.8 SECONDS, CPU UTILIZATION IS    78.40%

 .... DONE WITH PCM CONTRIBUTION TO GRADIENT ....
 CPU     0: STEP CPU TIME=     0.00 TOTAL CPU TIME=          3.0 (      0.1 MIN)
 TOTAL WALL CLOCK TIME=          3.8 SECONDS, CPU UTILIZATION IS    78.40%

          ----------------------------
          DFT-D PARAMETERS AND RESULTS
          ----------------------------
 C6 COEFFICIENTS USED:
       1 C6 FOR ELEMENT   1
  Z=  1 C6(AA)=    2.43
       1 C6 FOR ELEMENT   8
  Z=  8 C6(AA)=   12.14

 #          XYZ [AU]             R0(AA) [ANG.]  CN         C6(AA)     C8(AA)   C10(AA) [AU]
  1   6.70775   5.34790  -8.75093    8  1.220  1.988        12.1       245.0      6057.3
  2   5.79708   6.64518  -9.63958    1  0.910  0.995         2.4        29.4       434.7
  3   6.13762   5.41484  -7.02667    1  0.910  0.995         2.4        29.4       434.7

     MOLECULAR C6(AA) [AU] =        43.57

           DFT-D V2

 FUNCTIONAL: WB97X-D 

 PARAMETERS
 S6       :    1.0000
 RS6      :    1.1000
 USING CHAI-HEAD-GORDON DAMPING FUNCTION
 ALPHA6   :    6.0000

 EDISP /KCAL,AU:    -0.0185 -0.00002942

 E6    /KCAL :    -0.0185
 ..... END OF 1-ELECTRON GRADIENT ......
 CPU     0: STEP CPU TIME=     0.01 TOTAL CPU TIME=          3.0 (      0.1 MIN)
 TOTAL WALL CLOCK TIME=          3.9 SECONDS, CPU UTILIZATION IS    78.44%
 MEMORY FOR GRID POINT CONTRIBUTIONS TO THE DFT GRADIENT=    136230 WORDS.
 CPU     0: STEP CPU TIME=     0.03 TOTAL CPU TIME=          3.0 (      0.1 MIN)
 TOTAL WALL CLOCK TIME=          3.9 SECONDS, CPU UTILIZATION IS    78.54%
 ...... END OF 2-ELECTRON GRADIENT ......
 CPU     0: STEP CPU TIME=     0.00 TOTAL CPU TIME=          3.1 (      0.1 MIN)
 TOTAL WALL CLOCK TIME=          3.9 SECONDS, CPU UTILIZATION IS    78.54%

 UNITS ARE HARTREE/BOHR    E'X               E'Y               E'Z 
    1 O                0.000288531      -0.000363777      -0.000220005
    2 H               -0.000097883      -0.000034112       0.000210141
    3 H               -0.000190648       0.000397888       0.000009864
  $VIB   
          IVIB=   1 IATOM=   3 ICOORD=   2 E=      -76.3418918998
  2.885312513E-04-3.637767161E-04-2.200051112E-04-9.788295810E-05-3.411150045E-05
  2.101410821E-04-1.906483057E-04 3.978882094E-04 9.864019706E-06
 -1.861325861E+00 1.715370303E+00 1.049746023E+00
1   ATOM  3
                                        -------------------
   COORD  3                             NUCLEAR COORDINATES
                                        -------------------
     VIB  1

                       ATOM             X              Y              Z

                 1  O                6.707747       5.347900      -8.750934
                 2  H                5.797082       6.645184      -9.639583
                 3  H                6.137619       5.404840      -7.016672
 ...... END OF ONE-ELECTRON INTEGRALS ......
 CPU     0: STEP CPU TIME=     0.00 TOTAL CPU TIME=          3.1 (      0.1 MIN)
 TOTAL WALL CLOCK TIME=          3.9 SECONDS, CPU UTILIZATION IS    78.54%
 TOTAL NUMBER OF NONZERO TWO-ELECTRON INTEGRALS =               34564
          8 INTEGRAL RECORDS WERE STORED ON DISK FILE 21.
  ...... END OF TWO-ELECTRON INTEGRALS .....
 CPU     0: STEP CPU TIME=     0.00 TOTAL CPU TIME=          3.1 (      0.1 MIN)
 TOTAL WALL CLOCK TIME=          3.9 SECONDS, CPU UTILIZATION IS    78.54%
 TOTAL NUMBER OF NONZERO TWO-ELECTRON INTEGRALS =               34641
          8 INTEGRAL RECORDS WERE STORED ON DISK FILE  8.
  ...... END OF TWO-ELECTRON INTEGRALS .....
 CPU     0: STEP CPU TIME=     0.00 TOTAL CPU TIME=          3.1 (      0.1 MIN)
 TOTAL WALL CLOCK TIME=          3.9 SECONDS, CPU UTILIZATION IS    78.53%

     ----------------------------
     INPUT FOR TESSERA DEFINITION
     ----------------------------
     NTSALL  =        60     MTHALL  =         4
     MTHAUT  =         0     AUTFRE  =    2.0000
     NTSFRZ  =        60     KEEPSM  =         0
     AREAKP  =   10.0000     BONDRY  =    1.0000
     AREATL  =    0.0100

     SPHERE     INITS       METHOD
          1        60       FIXPVA
          2        60       FIXPVA
          3        60       FIXPVA

     ------------------------------
      FIXPVA TESSELLATION FOR PCM
         PEIFENG SU AND HUI LI
     UNIVERSITY OF NEBRASKA-LINCOLN
     ------------------------------


     INPUT FOR CAVITY DEFINITION 
     ---------------------------
   ATOM               COORDINATES                RADIUS       EPS
      1      3.5496      2.8300     -4.6308      1.5000     78.3900
      2      3.0677      3.5165     -5.1010      1.2000     78.3900
      3      3.2479      2.8601     -3.7131      1.2000     78.3900

 MEMORY USED TO GENERATE CAVITY=    176782


 TOTAL NUMBER OF SPHERES=     3
 SPHERE           CENTER  (X,Y,Z) (A)               RADIUS (A)      AREA(A*A)
     1   3.549587368   2.829986773  -4.630795267   1.800000000  21.537210086
     2   3.067684061   3.516480318  -5.101047760   1.440000000  10.339856394
     3   3.247888095   2.860118236  -3.713063036   1.440000000  10.118741290

 TOTAL NUMBER OF TESSERAE=      88
 SURFACE AREA=    41.99580777(A**2)    CAVITY VOLUME=     28.18689346 (A**3)
 CPU     0: STEP CPU TIME=     0.00 TOTAL CPU TIME=          3.1 (      0.1 MIN)
 TOTAL WALL CLOCK TIME=          3.9 SECONDS, CPU UTILIZATION IS    78.54%

          THE SOLUTE IS ENCLOSED IN ONE CAVITY
 DONE CHECKING SEPARATION.
 CPU     0: STEP CPU TIME=     0.00 TOTAL CPU TIME=          3.1 (      0.1 MIN)
 TOTAL WALL CLOCK TIME=          3.9 SECONDS, CPU UTILIZATION IS    78.54%

 ..... DONE SETTING UP PCM CALCULATION .....
 CPU     0: STEP CPU TIME=     0.00 TOTAL CPU TIME=          3.1 (      0.1 MIN)
 TOTAL WALL CLOCK TIME=          3.9 SECONDS, CPU UTILIZATION IS    78.53%
 NUCLEI-NUCLEAR CHARGE POLARIZATION ADJUSTMENT TO VNN=        0.0000000000

          --------------------------
           R-WB97X-D SCF CALCULATION
          --------------------------
         DENSITY MATRIX CONVERGENCE THRESHOLD=  1.00E-05
     COARSE -> FINE DFT GRID SWITCH THRESHOLD=  3.00E-04 (SWITCH IN $DFT)
                   HF -> DFT SWITCH THRESHOLD=  5.00E-03 (SWOFF IN $DFT)

 ITER EX DEM     TOTAL ENERGY        E CHANGE  DENSITY CHANGE    DIIS ERROR      VIR. SHIFT       DAMPING
          * * *   INITIATING DIIS PROCEDURE   * * *
   1  0  0      -76.3418303031   -76.3418303031   0.001994984   0.002351279     0.000000000     1.000000000
   2  1  0      -76.3418393483    -0.0000090452   0.000366358   0.000504903     0.000000000     1.000000000
   3  2  0      -76.3418395470    -0.0000001987   0.000173921   0.000443044     0.000000000     1.000000000
   4  3  0      -76.3418397421    -0.0000001951   0.000053553   0.000060996     0.000000000     1.000000000
   5  4  0      -76.3418397507    -0.0000000086   0.000020006   0.000009505     0.000000000     1.000000000
   6  5  0      -76.3418397511    -0.0000000004   0.000002356   0.000001218     0.000000000     1.000000000
   7  6  0      -76.3418397511    -0.0000000000   0.000000364   0.000000195     0.000000000     1.000000000

          -----------------
          DENSITY CONVERGED
          -----------------
     TIME TO FORM FOCK OPERATORS=       0.2 SECONDS (       0.0 SEC/ITER)
     TIME TO SOLVE SCF EQUATIONS=       0.0 SECONDS (       0.0 SEC/ITER)

          ----------------------------
          DFT-D PARAMETERS AND RESULTS
          ----------------------------
 C6 COEFFICIENTS USED:
       1 C6 FOR ELEMENT   1
  Z=  1 C6(AA)=    2.43
       1 C6 FOR ELEMENT   8
  Z=  8 C6(AA)=   12.14

 #          XYZ [AU]             R0(AA) [ANG.]  CN         C6(AA)     C8(AA)   C10(AA) [AU]
  1   6.70775   5.34790  -8.75093    8  1.220  1.987        12.1       245.0      6057.3
  2   5.79708   6.64518  -9.63958    1  0.910  0.995         2.4        29.4       434.7
  3   6.13762   5.40484  -7.01667    1  0.910  0.994         2.4        29.4       434.7

     MOLECULAR C6(AA) [AU] =        43.57

           DFT-D V2

 FUNCTIONAL: WB97X-D 

 PARAMETERS
 S6       :    1.0000
 RS6      :    1.1000
 USING CHAI-HEAD-GORDON DAMPING FUNCTION
 ALPHA6   :    6.0000

 EDISP /KCAL,AU:    -0.0190 -0.00003021

 E6    /KCAL :    -0.0190

 FINAL R-WB97X-D ENERGY IS      -76.3418699594 AFTER   7 ITERATIONS
 DFT EXCHANGE + CORRELATION ENERGY =        -6.4527316877
 TOTAL ELECTRON NUMBER             =        10.0000080776
 GRIMME'S DISPERSION ENERGY                     =       -0.0000302083
 ENERGY WITHOUT GRIMME'S DISPERSION CORRECTION IS      -76.3418397511

 Alpha HOMO=   -11.127567 eV, LUMO=    3.776180 eV, gap=   14.903747 eV
  
   PCM ASC=     -0.0115042912
   GCAVP  =      0.0000000000
   GDISP  =      0.0000000000
   GREP   =      0.0000000000
 ...... END OF RHF CALCULATION ......
 CPU     0: STEP CPU TIME=     0.18 TOTAL CPU TIME=          3.2 (      0.1 MIN)
 TOTAL WALL CLOCK TIME=          4.1 SECONDS, CPU UTILIZATION IS    79.05%

 .... DONE WITH PCM CONTRIBUTION TO GRADIENT ....
 CPU     0: STEP CPU TIME=     0.00 TOTAL CPU TIME=          3.2 (      0.1 MIN)
 TOTAL WALL CLOCK TIME=          4.1 SECONDS, CPU UTILIZATION IS    79.05%

          ----------------------------
          DFT-D PARAMETERS AND RESULTS
          ----------------------------
 C6 COEFFICIENTS USED:
       1 C6 FOR ELEMENT   1
  Z=  1 C6(AA)=    2.43
       1 C6 FOR ELEMENT   8
  Z=  8 C6(AA)=   12.14

 #          XYZ [AU]             R0(AA) [ANG.]  CN         C6(AA)     C8(AA)   C10(AA) [AU]
  1   6.70775   5.34790  -8.75093    8  1.220  1.987        12.1       245.0      6057.3
  2   5.79708   6.64518  -9.63958    1  0.910  0.995         2.4        29.4       434.7
  3   6.13762   5.40484  -7.01667    1  0.910  0.994         2.4        29.4       434.7

     MOLECULAR C6(AA) [AU] =        43.57

           DFT-D V2

 FUNCTIONAL: WB97X-D 

 PARAMETERS
 S6       :    1.0000
 RS6      :    1.1000
 USING CHAI-HEAD-GORDON DAMPING FUNCTION
 ALPHA6   :    6.0000

 EDISP /KCAL,AU:    -0.0190 -0.00003021

 E6    /KCAL :    -0.0190
 ..... END OF 1-ELECTRON GRADIENT ......
 CPU     0: STEP CPU TIME=     0.01 TOTAL CPU TIME=          3.2 (      0.1 MIN)
 TOTAL WALL CLOCK TIME=          4.1 SECONDS, CPU UTILIZATION IS    79.09%
 MEMORY FOR GRID POINT CONTRIBUTIONS TO THE DFT GRADIENT=    136230 WORDS.
 CPU     0: STEP CPU TIME=     0.03 TOTAL CPU TIME=          3.3 (      0.1 MIN)
 TOTAL WALL CLOCK TIME=          4.1 SECONDS, CPU UTILIZATION IS    79.19%
 ...... END OF 2-ELECTRON GRADIENT ......
 CPU     0: STEP CPU TIME=     0.00 TOTAL CPU TIME=          3.3 (      0.1 MIN)
 TOTAL WALL CLOCK TIME=          4.1 SECONDS, CPU UTILIZATION IS    79.19%

 UNITS ARE HARTREE/BOHR    E'X               E'Y               E'Z 
    1 O                0.001293085      -0.000015748      -0.004664920
    2 H                0.000142820      -0.000151325      -0.000265455
    3 H               -0.001435905       0.000167073       0.004930374
  $VIB   
          IVIB=   1 IATOM=   3 ICOORD=   3 E=      -76.3418699594
  1.293085154E-03-1.574839444E-05-4.664919689E-03 1.428200997E-04-1.513248513E-04
 -2.654547560E-04-1.435905266E-03 1.670732387E-04 4.930374436E-03
 -1.861982216E+00 1.704740999E+00 1.059238428E+00
1   ATOM  1
                                        -------------------
   COORD  1                             NUCLEAR COORDINATES
                                        -------------------
     VIB  2

                       ATOM             X              Y              Z

                 1  O                6.697747       5.347900      -8.750934
                 2  H                5.797082       6.645184      -9.639583
                 3  H                6.137619       5.404840      -7.026672
 ...... END OF ONE-ELECTRON INTEGRALS ......
 CPU     0: STEP CPU TIME=     0.00 TOTAL CPU TIME=          3.3 (      0.1 MIN)
 TOTAL WALL CLOCK TIME=          4.1 SECONDS, CPU UTILIZATION IS    79.19%
 TOTAL NUMBER OF NONZERO TWO-ELECTRON INTEGRALS =               34565
          8 INTEGRAL RECORDS WERE STORED ON DISK FILE 21.
  ...... END OF TWO-ELECTRON INTEGRALS .....
 CPU     0: STEP CPU TIME=     0.00 TOTAL CPU TIME=          3.3 (      0.1 MIN)
 TOTAL WALL CLOCK TIME=          4.1 SECONDS, CPU UTILIZATION IS    79.17%
 TOTAL NUMBER OF NONZERO TWO-ELECTRON INTEGRALS =               34641
          8 INTEGRAL RECORDS WERE STORED ON DISK FILE  8.
  ...... END OF TWO-ELECTRON INTEGRALS .....
 CPU     0: STEP CPU TIME=     0.00 TOTAL CPU TIME=          3.3 (      0.1 MIN)
 TOTAL WALL CLOCK TIME=          4.1 SECONDS, CPU UTILIZATION IS    79.15%

     ----------------------------
     INPUT FOR TESSERA DEFINITION
     ----------------------------
     NTSALL  =        60     MTHALL  =         4
     MTHAUT  =         0     AUTFRE  =    2.0000
     NTSFRZ  =        60     KEEPSM  =         0
     AREAKP  =   10.0000     BONDRY  =    1.0000
     AREATL  =    0.0100

     SPHERE     INITS       METHOD
          1        60       FIXPVA
          2        60       FIXPVA
          3        60       FIXPVA

     ------------------------------
      FIXPVA TESSELLATION FOR PCM
         PEIFENG SU AND HUI LI
     UNIVERSITY OF NEBRASKA-LINCOLN
     ------------------------------


     INPUT FOR CAVITY DEFINITION 
     ---------------------------
   ATOM               COORDINATES                RADIUS       EPS
      1      3.5443      2.8300     -4.6308      1.5000     78.3900
      2      3.0677      3.5165     -5.1010      1.2000     78.3900
      3      3.2479      2.8601     -3.7184      1.2000     78.3900

 MEMORY USED TO GENERATE CAVITY=    176782


 TOTAL NUMBER OF SPHERES=     3
 SPHERE           CENTER  (X,Y,Z) (A)               RADIUS (A)      AREA(A*A)
     1   3.544295596   2.829986773  -4.630795267   1.800000000  21.510705473
     2   3.067684061   3.516480318  -5.101047760   1.440000000  10.337199202
     3   3.247888095   2.860118236  -3.718354808   1.440000000  10.092303846

 TOTAL NUMBER OF TESSERAE=      88
 SURFACE AREA=    41.94020852(A**2)    CAVITY VOLUME=     28.13729415 (A**3)
 CPU     0: STEP CPU TIME=     0.00 TOTAL CPU TIME=          3.3 (      0.1 MIN)
 TOTAL WALL CLOCK TIME=          4.1 SECONDS, CPU UTILIZATION IS    79.16%

          THE SOLUTE IS ENCLOSED IN ONE CAVITY
 DONE CHECKING SEPARATION.
 CPU     0: STEP CPU TIME=     0.00 TOTAL CPU TIME=          3.3 (      0.1 MIN)
 TOTAL WALL CLOCK TIME=          4.1 SECONDS, CPU UTILIZATION IS    79.16%

 ..... DONE SETTING UP PCM CALCULATION .....
 CPU     0: STEP CPU TIME=     0.00 TOTAL CPU TIME=          3.3 (      0.1 MIN)
 TOTAL WALL CLOCK TIME=          4.1 SECONDS, CPU UTILIZATION IS    79.15%
 NUCLEI-NUCLEAR CHARGE POLARIZATION ADJUSTMENT TO VNN=        0.0000000000

          --------------------------
           R-WB97X-D SCF CALCULATION
          --------------------------
         DENSITY MATRIX CONVERGENCE THRESHOLD=  1.00E-05
     COARSE -> FINE DFT GRID SWITCH THRESHOLD=  3.00E-04 (SWITCH IN $DFT)
                   HF -> DFT SWITCH THRESHOLD=  5.00E-03 (SWOFF IN $DFT)

 ITER EX DEM     TOTAL ENERGY        E CHANGE  DENSITY CHANGE    DIIS ERROR      VIR. SHIFT       DAMPING
          * * *   INITIATING DIIS PROCEDURE   * * *
   1  0  0      -76.3418438856   -76.3418438856   0.002228306   0.001908839     0.000000000     1.000000000
   2  1  0      -76.3418536917    -0.0000098061   0.000393030   0.000438544     0.000000000     1.000000000
   3  2  0      -76.3418539332    -0.0000002415   0.000178052   0.000416461     0.000000000     1.000000000
   4  3  0      -76.3418541120    -0.0000001787   0.000082737   0.000062960     0.000000000     1.000000000
   5  4  0      -76.3418541206    -0.0000000086   0.000019652   0.000008534     0.000000000     1.000000000
   6  5  0      -76.3418541209    -0.0000000003   0.000003405   0.000001059     0.000000000     1.000000000
   7  6  0      -76.3418541209    -0.0000000000   0.000000815   0.000000161     0.000000000     1.000000000

          -----------------
          DENSITY CONVERGED
          -----------------
     TIME TO FORM FOCK OPERATORS=       0.2 SECONDS (       0.0 SEC/ITER)
     TIME TO SOLVE SCF EQUATIONS=       0.0 SECONDS (       0.0 SEC/ITER)

          ----------------------------
          DFT-D PARAMETERS AND RESULTS
          ----------------------------
 C6 COEFFICIENTS USED:
       1 C6 FOR ELEMENT   1
  Z=  1 C6(AA)=    2.43
       1 C6 FOR ELEMENT   8
  Z=  8 C6(AA)=   12.14

 #          XYZ [AU]             R0(AA) [ANG.]  CN         C6(AA)     C8(AA)   C10(AA) [AU]
  1   6.69775   5.34790  -8.75093    8  1.220  1.988        12.1       245.0      6057.3
  2   5.79708   6.64518  -9.63958    1  0.910  0.995         2.4        29.4       434.7
  3   6.13762   5.40484  -7.02667    1  0.910  0.995         2.4        29.4       434.7

     MOLECULAR C6(AA) [AU] =        43.57

           DFT-D V2

 FUNCTIONAL: WB97X-D 

 PARAMETERS
 S6       :    1.0000
 RS6      :    1.1000
 USING CHAI-HEAD-GORDON DAMPING FUNCTION
 ALPHA6   :    6.0000

 EDISP /KCAL,AU:    -0.0186 -0.00002965

 E6    /KCAL :    -0.0186

 FINAL R-WB97X-D ENERGY IS      -76.3418837722 AFTER   7 ITERATIONS
 DFT EXCHANGE + CORRELATION ENERGY =        -6.4561202478
 TOTAL ELECTRON NUMBER             =        10.0000082961
 GRIMME'S DISPERSION ENERGY                     =       -0.0000296512
 ENERGY WITHOUT GRIMME'S DISPERSION CORRECTION IS      -76.3418541209

 Alpha HOMO=   -11.136622 eV, LUMO=    3.791455 eV, gap=   14.928078 eV
  
   PCM ASC=     -0.0114840775
   GCAVP  =      0.0000000000
   GDISP  =      0.0000000000
   GREP   =      0.0000000000
 ...... END OF RHF CALCULATION ......
 CPU     0: STEP CPU TIME=     0.18 TOTAL CPU TIME=          3.5 (      0.1 MIN)
 TOTAL WALL CLOCK TIME=          4.4 SECONDS, CPU UTILIZATION IS    79.49%

 .... DONE WITH PCM CONTRIBUTION TO GRADIENT ....
 CPU     0: STEP CPU TIME=     0.00 TOTAL CPU TIME=          3.5 (      0.1 MIN)
 TOTAL WALL CLOCK TIME=          4.4 SECONDS, CPU UTILIZATION IS    79.50%

          ----------------------------
          DFT-D PARAMETERS AND RESULTS
          ----------------------------
 C6 COEFFICIENTS USED:
       1 C6 FOR ELEMENT   1
  Z=  1 C6(AA)=    2.43
       1 C6 FOR ELEMENT   8
  Z=  8 C6(AA)=   12.14

 #          XYZ [AU]             R0(AA) [ANG.]  CN         C6(AA)     C8(AA)   C10(AA) [AU]
  1   6.69775   5.34790  -8.75093    8  1.220  1.988        12.1       245.0      6057.3
  2   5.79708   6.64518  -9.63958    1  0.910  0.995         2.4        29.4       434.7
  3   6.13762   5.40484  -7.02667    1  0.910  0.995         2.4        29.4       434.7

     MOLECULAR C6(AA) [AU] =        43.57

           DFT-D V2

 FUNCTIONAL: WB97X-D 

 PARAMETERS
 S6       :    1.0000
 RS6      :    1.1000
 USING CHAI-HEAD-GORDON DAMPING FUNCTION
 ALPHA6   :    6.0000

 EDISP /KCAL,AU:    -0.0186 -0.00002965

 E6    /KCAL :    -0.0186
 ..... END OF 1-ELECTRON GRADIENT ......
 CPU     0: STEP CPU TIME=     0.01 TOTAL CPU TIME=          3.5 (      0.1 MIN)
 TOTAL WALL CLOCK TIME=          4.4 SECONDS, CPU UTILIZATION IS    79.48%
 MEMORY FOR GRID POINT CONTRIBUTIONS TO THE DFT GRADIENT=    136230 WORDS.
 CPU     0: STEP CPU TIME=     0.03 TOTAL CPU TIME=          3.5 (      0.1 MIN)
 TOTAL WALL CLOCK TIME=          4.4 SECONDS, CPU UTILIZATION IS    79.58%
 ...... END OF 2-ELECTRON GRADIENT ......
 CPU     0: STEP CPU TIME=     0.00 TOTAL CPU TIME=          3.5 (      0.1 MIN)
 TOTAL WALL CLOCK TIME=          4.4 SECONDS, CPU UTILIZATION IS    79.58%

 UNITS ARE HARTREE/BOHR    E'X               E'Y               E'Z 
    1 O               -0.002163057       0.002127240       0.000492311
    2 H                0.001466788      -0.001985310       0.000865069
    3 H                0.000696269      -0.000141930      -0.001357379
  $VIB   
          IVIB=   2 IATOM=   1 ICOORD=   1 E=      -76.3418837722
 -2.163056744E-03 2.127240277E-03 4.923106406E-04 1.466787568E-03-1.985310164E-03
  8.650686086E-04 6.962691759E-04-1.419301203E-04-1.357379258E-03
 -1.843506035E+00 1.709912434E+00 1.053487738E+00
1   ATOM  1
                                        -------------------
   COORD  2                             NUCLEAR COORDINATES
                                        -------------------
     VIB  2

                       ATOM             X              Y              Z

                 1  O                6.707747       5.337900      -8.750934
                 2  H                5.797082       6.645184      -9.639583
                 3  H                6.137619       5.404840      -7.026672
 ...... END OF ONE-ELECTRON INTEGRALS ......
 CPU     0: STEP CPU TIME=     0.00 TOTAL CPU TIME=          3.5 (      0.1 MIN)
 TOTAL WALL CLOCK TIME=          4.4 SECONDS, CPU UTILIZATION IS    79.58%
 TOTAL NUMBER OF NONZERO TWO-ELECTRON INTEGRALS =               34575
          8 INTEGRAL RECORDS WERE STORED ON DISK FILE 21.
  ...... END OF TWO-ELECTRON INTEGRALS .....
 CPU     0: STEP CPU TIME=     0.00 TOTAL CPU TIME=          3.5 (      0.1 MIN)
 TOTAL WALL CLOCK TIME=          4.4 SECONDS, CPU UTILIZATION IS    79.56%
 TOTAL NUMBER OF NONZERO TWO-ELECTRON INTEGRALS =               34641
          8 INTEGRAL RECORDS WERE STORED ON DISK FILE  8.
  ...... END OF TWO-ELECTRON INTEGRALS .....
 CPU     0: STEP CPU TIME=     0.00 TOTAL CPU TIME=          3.5 (      0.1 MIN)
 TOTAL WALL CLOCK TIME=          4.4 SECONDS, CPU UTILIZATION IS    79.55%

     ----------------------------
     INPUT FOR TESSERA DEFINITION
     ----------------------------
     NTSALL  =        60     MTHALL  =         4
     MTHAUT  =         0     AUTFRE  =    2.0000
     NTSFRZ  =        60     KEEPSM  =         0
     AREAKP  =   10.0000     BONDRY  =    1.0000
     AREATL  =    0.0100

     SPHERE     INITS       METHOD
          1        60       FIXPVA
          2        60       FIXPVA
          3        60       FIXPVA

     ------------------------------
      FIXPVA TESSELLATION FOR PCM
         PEIFENG SU AND HUI LI
     UNIVERSITY OF NEBRASKA-LINCOLN
     ------------------------------


     INPUT FOR CAVITY DEFINITION 
     ---------------------------
   ATOM               COORDINATES                RADIUS       EPS
      1      3.5496      2.8247     -4.6308      1.5000     78.3900
      2      3.0677      3.5165     -5.1010      1.2000     78.3900
      3      3.2479      2.8601     -3.7184      1.2000     78.3900

 MEMORY USED TO GENERATE CAVITY=    176782


 TOTAL NUMBER OF SPHERES=     3
 SPHERE           CENTER  (X,Y,Z) (A)               RADIUS (A)      AREA(A*A)
     1   3.549587368   2.824695000  -4.630795267   1.800000000  21.593290574
     2   3.067684061   3.516480318  -5.101047760   1.440000000  10.356877941
     3   3.247888095   2.860118236  -3.718354808   1.440000000  10.059111554

 TOTAL NUMBER OF TESSERAE=      88
 SURFACE AREA=    42.00928007(A**2)    CAVITY VOLUME=     28.11764379 (A**3)
 CPU     0: STEP CPU TIME=     0.00 TOTAL CPU TIME=          3.5 (      0.1 MIN)
 TOTAL WALL CLOCK TIME=          4.4 SECONDS, CPU UTILIZATION IS    79.56%

          THE SOLUTE IS ENCLOSED IN ONE CAVITY
 DONE CHECKING SEPARATION.
 CPU     0: STEP CPU TIME=     0.00 TOTAL CPU TIME=          3.5 (      0.1 MIN)
 TOTAL WALL CLOCK TIME=          4.4 SECONDS, CPU UTILIZATION IS    79.56%

 ..... DONE SETTING UP PCM CALCULATION .....
 CPU     0: STEP CPU TIME=     0.00 TOTAL CPU TIME=          3.5 (      0.1 MIN)
 TOTAL WALL CLOCK TIME=          4.4 SECONDS, CPU UTILIZATION IS    79.56%
 NUCLEI-NUCLEAR CHARGE POLARIZATION ADJUSTMENT TO VNN=        0.0000000000

          --------------------------
           R-WB97X-D SCF CALCULATION
          --------------------------
         DENSITY MATRIX CONVERGENCE THRESHOLD=  1.00E-05
     COARSE -> FINE DFT GRID SWITCH THRESHOLD=  3.00E-04 (SWITCH IN $DFT)
                   HF -> DFT SWITCH THRESHOLD=  5.00E-03 (SWOFF IN $DFT)

 ITER EX DEM     TOTAL ENERGY        E CHANGE  DENSITY CHANGE    DIIS ERROR      VIR. SHIFT       DAMPING
          * * *   INITIATING DIIS PROCEDURE   * * *
   1  0  0      -76.3418375824   -76.3418375824   0.002043136   0.001750118     0.000000000     1.000000000
   2  1  0      -76.3418483320    -0.0000107496   0.000362879   0.000404422     0.000000000     1.000000000
   3  2  0      -76.3418486134    -0.0000002814   0.000172153   0.000379794     0.000000000     1.000000000
   4  3  0      -76.3418487625    -0.0000001491   0.000074434   0.000080018     0.000000000     1.000000000
   5  4  0      -76.3418487737    -0.0000000112   0.000021346   0.000009589     0.000000000     1.000000000
   6  5  0      -76.3418487741    -0.0000000004   0.000003342   0.000001344     0.000000000     1.000000000
   7  6  0      -76.3418487741    -0.0000000000   0.000000930   0.000000199     0.000000000     1.000000000

          -----------------
          DENSITY CONVERGED
          -----------------
     TIME TO FORM FOCK OPERATORS=       0.2 SECONDS (       0.0 SEC/ITER)
     TIME TO SOLVE SCF EQUATIONS=       0.0 SECONDS (       0.0 SEC/ITER)

          ----------------------------
          DFT-D PARAMETERS AND RESULTS
          ----------------------------
 C6 COEFFICIENTS USED:
       1 C6 FOR ELEMENT   1
  Z=  1 C6(AA)=    2.43
       1 C6 FOR ELEMENT   8
  Z=  8 C6(AA)=   12.14

 #          XYZ [AU]             R0(AA) [ANG.]  CN         C6(AA)     C8(AA)   C10(AA) [AU]
  1   6.70775   5.33790  -8.75093    8  1.220  1.987        12.1       245.0      6057.3
  2   5.79708   6.64518  -9.63958    1  0.910  0.994         2.4        29.4       434.7
  3   6.13762   5.40484  -7.02667    1  0.910  0.995         2.4        29.4       434.7

     MOLECULAR C6(AA) [AU] =        43.57

           DFT-D V2

 FUNCTIONAL: WB97X-D 

 PARAMETERS
 S6       :    1.0000
 RS6      :    1.1000
 USING CHAI-HEAD-GORDON DAMPING FUNCTION
 ALPHA6   :    6.0000

 EDISP /KCAL,AU:    -0.0186 -0.00002968

 E6    /KCAL :    -0.0186

 FINAL R-WB97X-D ENERGY IS      -76.3418784550 AFTER   7 ITERATIONS
 DFT EXCHANGE + CORRELATION ENERGY =        -6.4531756317
 TOTAL ELECTRON NUMBER             =        10.0000084802
 GRIMME'S DISPERSION ENERGY                     =       -0.0000296808
 ENERGY WITHOUT GRIMME'S DISPERSION CORRECTION IS      -76.3418487741

 Alpha HOMO=   -11.131052 eV, LUMO=    3.773421 eV, gap=   14.904473 eV
  
   PCM ASC=     -0.0114220311
   GCAVP  =      0.0000000000
   GDISP  =      0.0000000000
   GREP   =      0.0000000000
 ...... END OF RHF CALCULATION ......
 CPU     0: STEP CPU TIME=     0.17 TOTAL CPU TIME=          3.7 (      0.1 MIN)
 TOTAL WALL CLOCK TIME=          4.6 SECONDS, CPU UTILIZATION IS    79.86%

 .... DONE WITH PCM CONTRIBUTION TO GRADIENT ....
 CPU     0: STEP CPU TIME=     0.00 TOTAL CPU TIME=          3.7 (      0.1 MIN)
 TOTAL WALL CLOCK TIME=          4.6 SECONDS, CPU UTILIZATION IS    79.86%

          ----------------------------
          DFT-D PARAMETERS AND RESULTS
          ----------------------------
 C6 COEFFICIENTS USED:
       1 C6 FOR ELEMENT   1
  Z=  1 C6(AA)=    2.43
       1 C6 FOR ELEMENT   8
  Z=  8 C6(AA)=   12.14

 #          XYZ [AU]             R0(AA) [ANG.]  CN         C6(AA)     C8(AA)   C10(AA) [AU]
  1   6.70775   5.33790  -8.75093    8  1.220  1.987        12.1       245.0      6057.3
  2   5.79708   6.64518  -9.63958    1  0.910  0.994         2.4        29.4       434.7
  3   6.13762   5.40484  -7.02667    1  0.910  0.995         2.4        29.4       434.7

     MOLECULAR C6(AA) [AU] =        43.57

           DFT-D V2

 FUNCTIONAL: WB97X-D 

 PARAMETERS
 S6       :    1.0000
 RS6      :    1.1000
 USING CHAI-HEAD-GORDON DAMPING FUNCTION
 ALPHA6   :    6.0000

 EDISP /KCAL,AU:    -0.0186 -0.00002968

 E6    /KCAL :    -0.0186
 ..... END OF 1-ELECTRON GRADIENT ......
 CPU     0: STEP CPU TIME=     0.01 TOTAL CPU TIME=          3.7 (      0.1 MIN)
 TOTAL WALL CLOCK TIME=          4.6 SECONDS, CPU UTILIZATION IS    79.89%
 MEMORY FOR GRID POINT CONTRIBUTIONS TO THE DFT GRADIENT=    136230 WORDS.
 CPU     0: STEP CPU TIME=     0.03 TOTAL CPU TIME=          3.7 (      0.1 MIN)
 TOTAL WALL CLOCK TIME=          4.6 SECONDS, CPU UTILIZATION IS    79.93%
 ...... END OF 2-ELECTRON GRADIENT ......
 CPU     0: STEP CPU TIME=     0.00 TOTAL CPU TIME=          3.7 (      0.1 MIN)
 TOTAL WALL CLOCK TIME=          4.6 SECONDS, CPU UTILIZATION IS    79.93%

 UNITS ARE HARTREE/BOHR    E'X               E'Y               E'Z 
    1 O                0.002170381      -0.003136078       0.001738346
    2 H               -0.001992142       0.002716920      -0.001652419
    3 H               -0.000178239       0.000419158      -0.000085927
  $VIB   
          IVIB=   2 IATOM=   1 ICOORD=   2 E=      -76.3418784550
  2.170380927E-03-3.136077734E-03 1.738346013E-03-1.992142068E-03 2.716920121E-03
 -1.652418568E-03-1.782388711E-04 4.191576230E-04-8.592745479E-05
 -1.858411310E+00 1.724270169E+00 1.050919092E+00
1   ATOM  1
                                        -------------------
   COORD  3                             NUCLEAR COORDINATES
                                        -------------------
     VIB  2

                       ATOM             X              Y              Z

                 1  O                6.707747       5.347900      -8.760934
                 2  H                5.797082       6.645184      -9.639583
                 3  H                6.137619       5.404840      -7.026672
 ...... END OF ONE-ELECTRON INTEGRALS ......
 CPU     0: STEP CPU TIME=     0.00 TOTAL CPU TIME=          3.7 (      0.1 MIN)
 TOTAL WALL CLOCK TIME=          4.6 SECONDS, CPU UTILIZATION IS    79.93%
 TOTAL NUMBER OF NONZERO TWO-ELECTRON INTEGRALS =               34558
          8 INTEGRAL RECORDS WERE STORED ON DISK FILE 21.
  ...... END OF TWO-ELECTRON INTEGRALS .....
 CPU     0: STEP CPU TIME=     0.00 TOTAL CPU TIME=          3.7 (      0.1 MIN)
 TOTAL WALL CLOCK TIME=          4.6 SECONDS, CPU UTILIZATION IS    79.92%
 TOTAL NUMBER OF NONZERO TWO-ELECTRON INTEGRALS =               34641
          8 INTEGRAL RECORDS WERE STORED ON DISK FILE  8.
  ...... END OF TWO-ELECTRON INTEGRALS .....
 CPU     0: STEP CPU TIME=     0.00 TOTAL CPU TIME=          3.7 (      0.1 MIN)
 TOTAL WALL CLOCK TIME=          4.6 SECONDS, CPU UTILIZATION IS    79.92%

     ----------------------------
     INPUT FOR TESSERA DEFINITION
     ----------------------------
     NTSALL  =        60     MTHALL  =         4
     MTHAUT  =         0     AUTFRE  =    2.0000
     NTSFRZ  =        60     KEEPSM  =         0
     AREAKP  =   10.0000     BONDRY  =    1.0000
     AREATL  =    0.0100

     SPHERE     INITS       METHOD
          1        60       FIXPVA
          2        60       FIXPVA
          3        60       FIXPVA

     ------------------------------
      FIXPVA TESSELLATION FOR PCM
         PEIFENG SU AND HUI LI
     UNIVERSITY OF NEBRASKA-LINCOLN
     ------------------------------


     INPUT FOR CAVITY DEFINITION 
     ---------------------------
   ATOM               COORDINATES                RADIUS       EPS
      1      3.5496      2.8300     -4.6361      1.5000     78.3900
      2      3.0677      3.5165     -5.1010      1.2000     78.3900
      3      3.2479      2.8601     -3.7184      1.2000     78.3900

 MEMORY USED TO GENERATE CAVITY=    176782


 TOTAL NUMBER OF SPHERES=     3
 SPHERE           CENTER  (X,Y,Z) (A)               RADIUS (A)      AREA(A*A)
     1   3.549587368   2.829986773  -4.636087040   1.800000000  21.538551297
     2   3.067684061   3.516480318  -5.101047760   1.440000000  10.310082261
     3   3.247888095   2.860118236  -3.718354808   1.440000000  10.117802133

 TOTAL NUMBER OF TESSERAE=      88
 SURFACE AREA=    41.96643569(A**2)    CAVITY VOLUME=     28.12912983 (A**3)
 CPU     0: STEP CPU TIME=     0.00 TOTAL CPU TIME=          3.7 (      0.1 MIN)
 TOTAL WALL CLOCK TIME=          4.6 SECONDS, CPU UTILIZATION IS    79.92%

          THE SOLUTE IS ENCLOSED IN ONE CAVITY
 DONE CHECKING SEPARATION.
 CPU     0: STEP CPU TIME=     0.00 TOTAL CPU TIME=          3.7 (      0.1 MIN)
 TOTAL WALL CLOCK TIME=          4.6 SECONDS, CPU UTILIZATION IS    79.92%

 ..... DONE SETTING UP PCM CALCULATION .....
 CPU     0: STEP CPU TIME=     0.00 TOTAL CPU TIME=          3.7 (      0.1 MIN)
 TOTAL WALL CLOCK TIME=          4.6 SECONDS, CPU UTILIZATION IS    79.92%
 NUCLEI-NUCLEAR CHARGE POLARIZATION ADJUSTMENT TO VNN=        0.0000000000

          --------------------------
           R-WB97X-D SCF CALCULATION
          --------------------------
         DENSITY MATRIX CONVERGENCE THRESHOLD=  1.00E-05
     COARSE -> FINE DFT GRID SWITCH THRESHOLD=  3.00E-04 (SWITCH IN $DFT)
                   HF -> DFT SWITCH THRESHOLD=  5.00E-03 (SWOFF IN $DFT)

 ITER EX DEM     TOTAL ENERGY        E CHANGE  DENSITY CHANGE    DIIS ERROR      VIR. SHIFT       DAMPING
          * * *   INITIATING DIIS PROCEDURE   * * *
   1  0  0      -76.3418191125   -76.3418191125   0.002056648   0.003230463     0.000000000     1.000000000
   2  1  0      -76.3418338201    -0.0000147076   0.000332546   0.000535472     0.000000000     1.000000000
   3  2  0      -76.3418342235    -0.0000004035   0.000131446   0.000219416     0.000000000     1.000000000
   4  3  0      -76.3418342802    -0.0000000567   0.000047624   0.000130931     0.000000000     1.000000000
   5  4  0      -76.3418342998    -0.0000000196   0.000014905   0.000010809     0.000000000     1.000000000
   6  5  0      -76.3418343002    -0.0000000005   0.000001491   0.000000783     0.000000000     1.000000000
   7  6  0      -76.3418343002     0.0000000000   0.000000428   0.000000183     0.000000000     1.000000000

          -----------------
          DENSITY CONVERGED
          -----------------
     TIME TO FORM FOCK OPERATORS=       0.2 SECONDS (       0.0 SEC/ITER)
     TIME TO SOLVE SCF EQUATIONS=       0.0 SECONDS (       0.0 SEC/ITER)

          ----------------------------
          DFT-D PARAMETERS AND RESULTS
          ----------------------------
 C6 COEFFICIENTS USED:
       1 C6 FOR ELEMENT   1
  Z=  1 C6(AA)=    2.43
       1 C6 FOR ELEMENT   8
  Z=  8 C6(AA)=   12.14

 #          XYZ [AU]             R0(AA) [ANG.]  CN         C6(AA)     C8(AA)   C10(AA) [AU]
  1   6.70775   5.34790  -8.76093    8  1.220  1.987        12.1       245.0      6057.3
  2   5.79708   6.64518  -9.63958    1  0.910  0.995         2.4        29.4       434.7
  3   6.13762   5.40484  -7.02667    1  0.910  0.994         2.4        29.4       434.7

     MOLECULAR C6(AA) [AU] =        43.57

           DFT-D V2

 FUNCTIONAL: WB97X-D 

 PARAMETERS
 S6       :    1.0000
 RS6      :    1.1000
 USING CHAI-HEAD-GORDON DAMPING FUNCTION
 ALPHA6   :    6.0000

 EDISP /KCAL,AU:    -0.0186 -0.00002968

 E6    /KCAL :    -0.0186

 FINAL R-WB97X-D ENERGY IS      -76.3418639758 AFTER   7 ITERATIONS
 DFT EXCHANGE + CORRELATION ENERGY =        -6.4537226936
 TOTAL ELECTRON NUMBER             =        10.0000074792
 GRIMME'S DISPERSION ENERGY                     =       -0.0000296756
 ENERGY WITHOUT GRIMME'S DISPERSION CORRECTION IS      -76.3418343002

 Alpha HOMO=   -11.131586 eV, LUMO=    3.777115 eV, gap=   14.908701 eV
  
   PCM ASC=     -0.0114676195
   GCAVP  =      0.0000000000
   GDISP  =      0.0000000000
   GREP   =      0.0000000000
 ...... END OF RHF CALCULATION ......
 CPU     0: STEP CPU TIME=     0.17 TOTAL CPU TIME=          3.9 (      0.1 MIN)
 TOTAL WALL CLOCK TIME=          4.8 SECONDS, CPU UTILIZATION IS    80.21%

 .... DONE WITH PCM CONTRIBUTION TO GRADIENT ....
 CPU     0: STEP CPU TIME=     0.00 TOTAL CPU TIME=          3.9 (      0.1 MIN)
 TOTAL WALL CLOCK TIME=          4.8 SECONDS, CPU UTILIZATION IS    80.21%

          ----------------------------
          DFT-D PARAMETERS AND RESULTS
          ----------------------------
 C6 COEFFICIENTS USED:
       1 C6 FOR ELEMENT   1
  Z=  1 C6(AA)=    2.43
       1 C6 FOR ELEMENT   8
  Z=  8 C6(AA)=   12.14

 #          XYZ [AU]             R0(AA) [ANG.]  CN         C6(AA)     C8(AA)   C10(AA) [AU]
  1   6.70775   5.34790  -8.76093    8  1.220  1.987        12.1       245.0      6057.3
  2   5.79708   6.64518  -9.63958    1  0.910  0.995         2.4        29.4       434.7
  3   6.13762   5.40484  -7.02667    1  0.910  0.994         2.4        29.4       434.7

     MOLECULAR C6(AA) [AU] =        43.57

           DFT-D V2

 FUNCTIONAL: WB97X-D 

 PARAMETERS
 S6       :    1.0000
 RS6      :    1.1000
 USING CHAI-HEAD-GORDON DAMPING FUNCTION
 ALPHA6   :    6.0000

 EDISP /KCAL,AU:    -0.0186 -0.00002968

 E6    /KCAL :    -0.0186
 ..... END OF 1-ELECTRON GRADIENT ......
 CPU     0: STEP CPU TIME=     0.01 TOTAL CPU TIME=          3.9 (      0.1 MIN)
 TOTAL WALL CLOCK TIME=          4.8 SECONDS, CPU UTILIZATION IS    80.24%
 MEMORY FOR GRID POINT CONTRIBUTIONS TO THE DFT GRADIENT=    136230 WORDS.
 CPU     0: STEP CPU TIME=     0.03 TOTAL CPU TIME=          3.9 (      0.1 MIN)
 TOTAL WALL CLOCK TIME=          4.9 SECONDS, CPU UTILIZATION IS    80.30%
 ...... END OF 2-ELECTRON GRADIENT ......
 CPU     0: STEP CPU TIME=     0.00 TOTAL CPU TIME=          3.9 (      0.1 MIN)
 TOTAL WALL CLOCK TIME=          4.9 SECONDS, CPU UTILIZATION IS    80.29%

 UNITS ARE HARTREE/BOHR    E'X               E'Y               E'Z 
    1 O                0.000312684       0.001569166      -0.006238119
    2 H                0.001362022      -0.002059011       0.001460080
    3 H               -0.001674706       0.000489846       0.004778040
  $VIB   
          IVIB=   2 IATOM=   1 ICOORD=   3 E=      -76.3418639758
  3.126835877E-04 1.569165739E-03-6.238119398E-03 1.362022263E-03-2.059011297E-03
  1.460079878E-03-1.674705864E-03 4.898455508E-04 4.778039507E-03
 -1.861216860E+00 1.704637748E+00 1.069456121E+00
1   ATOM  2
                                        -------------------
   COORD  1                             NUCLEAR COORDINATES
                                        -------------------
     VIB  2

                       ATOM             X              Y              Z

                 1  O                6.707747       5.347900      -8.750934
                 2  H                5.787082       6.645184      -9.639583
                 3  H                6.137619       5.404840      -7.026672
 ...... END OF ONE-ELECTRON INTEGRALS ......
 CPU     0: STEP CPU TIME=     0.00 TOTAL CPU TIME=          3.9 (      0.1 MIN)
 TOTAL WALL CLOCK TIME=          4.9 SECONDS, CPU UTILIZATION IS    80.29%
 TOTAL NUMBER OF NONZERO TWO-ELECTRON INTEGRALS =               34564
          8 INTEGRAL RECORDS WERE STORED ON DISK FILE 21.
  ...... END OF TWO-ELECTRON INTEGRALS .....
 CPU     0: STEP CPU TIME=     0.00 TOTAL CPU TIME=          3.9 (      0.1 MIN)
 TOTAL WALL CLOCK TIME=          4.9 SECONDS, CPU UTILIZATION IS    80.28%
 TOTAL NUMBER OF NONZERO TWO-ELECTRON INTEGRALS =               34641
          8 INTEGRAL RECORDS WERE STORED ON DISK FILE  8.
  ...... END OF TWO-ELECTRON INTEGRALS .....
 CPU     0: STEP CPU TIME=     0.00 TOTAL CPU TIME=          3.9 (      0.1 MIN)
 TOTAL WALL CLOCK TIME=          4.9 SECONDS, CPU UTILIZATION IS    80.27%

     ----------------------------
     INPUT FOR TESSERA DEFINITION
     ----------------------------
     NTSALL  =        60     MTHALL  =         4
     MTHAUT  =         0     AUTFRE  =    2.0000
     NTSFRZ  =        60     KEEPSM  =         0
     AREAKP  =   10.0000     BONDRY  =    1.0000
     AREATL  =    0.0100

     SPHERE     INITS       METHOD
          1        60       FIXPVA
          2        60       FIXPVA
          3        60       FIXPVA

     ------------------------------
      FIXPVA TESSELLATION FOR PCM
         PEIFENG SU AND HUI LI
     UNIVERSITY OF NEBRASKA-LINCOLN
     ------------------------------


     INPUT FOR CAVITY DEFINITION 
     ---------------------------
   ATOM               COORDINATES                RADIUS       EPS
      1      3.5496      2.8300     -4.6308      1.5000     78.3900
      2      3.0624      3.5165     -5.1010      1.2000     78.3900
      3      3.2479      2.8601     -3.7184      1.2000     78.3900

 MEMORY USED TO GENERATE CAVITY=    176782


 TOTAL NUMBER OF SPHERES=     3
 SPHERE           CENTER  (X,Y,Z) (A)               RADIUS (A)      AREA(A*A)
     1   3.549587368   2.829986773  -4.630795267   1.800000000  21.569586954
     2   3.062392289   3.516480318  -5.101047760   1.440000000  10.342274181
     3   3.247888095   2.860118236  -3.718354808   1.440000000  10.056175447

 TOTAL NUMBER OF TESSERAE=      88
 SURFACE AREA=    41.96803658(A**2)    CAVITY VOLUME=     28.13671455 (A**3)
 CPU     0: STEP CPU TIME=     0.00 TOTAL CPU TIME=          3.9 (      0.1 MIN)
 TOTAL WALL CLOCK TIME=          4.9 SECONDS, CPU UTILIZATION IS    80.27%

          THE SOLUTE IS ENCLOSED IN ONE CAVITY
 DONE CHECKING SEPARATION.
 CPU     0: STEP CPU TIME=     0.00 TOTAL CPU TIME=          3.9 (      0.1 MIN)
 TOTAL WALL CLOCK TIME=          4.9 SECONDS, CPU UTILIZATION IS    80.27%

 ..... DONE SETTING UP PCM CALCULATION .....
 CPU     0: STEP CPU TIME=     0.00 TOTAL CPU TIME=          3.9 (      0.1 MIN)
 TOTAL WALL CLOCK TIME=          4.9 SECONDS, CPU UTILIZATION IS    80.27%
 NUCLEI-NUCLEAR CHARGE POLARIZATION ADJUSTMENT TO VNN=        0.0000000000

          --------------------------
           R-WB97X-D SCF CALCULATION
          --------------------------
         DENSITY MATRIX CONVERGENCE THRESHOLD=  1.00E-05
     COARSE -> FINE DFT GRID SWITCH THRESHOLD=  3.00E-04 (SWITCH IN $DFT)
                   HF -> DFT SWITCH THRESHOLD=  5.00E-03 (SWOFF IN $DFT)

 ITER EX DEM     TOTAL ENERGY        E CHANGE  DENSITY CHANGE    DIIS ERROR      VIR. SHIFT       DAMPING
          * * *   INITIATING DIIS PROCEDURE   * * *
   1  0  0      -76.3418524065   -76.3418524065   0.001195385   0.001374083     0.000000000     1.000000000
   2  1  0      -76.3418578961    -0.0000054896   0.000300915   0.000271059     0.000000000     1.000000000
   3  2  0      -76.3418580506    -0.0000001545   0.000119204   0.000271181     0.000000000     1.000000000
   4  3  0      -76.3418581258    -0.0000000752   0.000063104   0.000048471     0.000000000     1.000000000
   5  4  0      -76.3418581309    -0.0000000051   0.000013560   0.000005334     0.000000000     1.000000000
   6  5  0      -76.3418581311    -0.0000000001   0.000001940   0.000000822     0.000000000     1.000000000
   7  6  0      -76.3418581311     0.0000000000   0.000000573   0.000000132     0.000000000     1.000000000

          -----------------
          DENSITY CONVERGED
          -----------------
     TIME TO FORM FOCK OPERATORS=       0.2 SECONDS (       0.0 SEC/ITER)
     TIME TO SOLVE SCF EQUATIONS=       0.0 SECONDS (       0.0 SEC/ITER)

          ----------------------------
          DFT-D PARAMETERS AND RESULTS
          ----------------------------
 C6 COEFFICIENTS USED:
       1 C6 FOR ELEMENT   1
  Z=  1 C6(AA)=    2.43
       1 C6 FOR ELEMENT   8
  Z=  8 C6(AA)=   12.14

 #          XYZ [AU]             R0(AA) [ANG.]  CN         C6(AA)     C8(AA)   C10(AA) [AU]
  1   6.70775   5.34790  -8.75093    8  1.220  1.987        12.1       245.0      6057.3
  2   5.78708   6.64518  -9.63958    1  0.910  0.994         2.4        29.4       434.7
  3   6.13762   5.40484  -7.02667    1  0.910  0.995         2.4        29.4       434.7

     MOLECULAR C6(AA) [AU] =        43.57

           DFT-D V2

 FUNCTIONAL: WB97X-D 

 PARAMETERS
 S6       :    1.0000
 RS6      :    1.1000
 USING CHAI-HEAD-GORDON DAMPING FUNCTION
 ALPHA6   :    6.0000

 EDISP /KCAL,AU:    -0.0187 -0.00002974

 E6    /KCAL :    -0.0187

 FINAL R-WB97X-D ENERGY IS      -76.3418878759 AFTER   7 ITERATIONS
 DFT EXCHANGE + CORRELATION ENERGY =        -6.4536272551
 TOTAL ELECTRON NUMBER             =        10.0000084124
 GRIMME'S DISPERSION ENERGY                     =       -0.0000297449
 ENERGY WITHOUT GRIMME'S DISPERSION CORRECTION IS      -76.3418581311

 Alpha HOMO=   -11.131101 eV, LUMO=    3.777578 eV, gap=   14.908680 eV
  
   PCM ASC=     -0.0114708999
   GCAVP  =      0.0000000000
   GDISP  =      0.0000000000
   GREP   =      0.0000000000
 ...... END OF RHF CALCULATION ......
 CPU     0: STEP CPU TIME=     0.18 TOTAL CPU TIME=          4.1 (      0.1 MIN)
 TOTAL WALL CLOCK TIME=          5.1 SECONDS, CPU UTILIZATION IS    80.55%

 .... DONE WITH PCM CONTRIBUTION TO GRADIENT ....
 CPU     0: STEP CPU TIME=     0.00 TOTAL CPU TIME=          4.1 (      0.1 MIN)
 TOTAL WALL CLOCK TIME=          5.1 SECONDS, CPU UTILIZATION IS    80.56%

          ----------------------------
          DFT-D PARAMETERS AND RESULTS
          ----------------------------
 C6 COEFFICIENTS USED:
       1 C6 FOR ELEMENT   1
  Z=  1 C6(AA)=    2.43
       1 C6 FOR ELEMENT   8
  Z=  8 C6(AA)=   12.14

 #          XYZ [AU]             R0(AA) [ANG.]  CN         C6(AA)     C8(AA)   C10(AA) [AU]
  1   6.70775   5.34790  -8.75093    8  1.220  1.987        12.1       245.0      6057.3
  2   5.78708   6.64518  -9.63958    1  0.910  0.994         2.4        29.4       434.7
  3   6.13762   5.40484  -7.02667    1  0.910  0.995         2.4        29.4       434.7

     MOLECULAR C6(AA) [AU] =        43.57

           DFT-D V2

 FUNCTIONAL: WB97X-D 

 PARAMETERS
 S6       :    1.0000
 RS6      :    1.1000
 USING CHAI-HEAD-GORDON DAMPING FUNCTION
 ALPHA6   :    6.0000

 EDISP /KCAL,AU:    -0.0187 -0.00002974

 E6    /KCAL :    -0.0187
 ..... END OF 1-ELECTRON GRADIENT ......
 CPU     0: STEP CPU TIME=     0.01 TOTAL CPU TIME=          4.1 (      0.1 MIN)
 TOTAL WALL CLOCK TIME=          5.1 SECONDS, CPU UTILIZATION IS    80.59%
 MEMORY FOR GRID POINT CONTRIBUTIONS TO THE DFT GRADIENT=    136230 WORDS.
 CPU     0: STEP CPU TIME=     0.03 TOTAL CPU TIME=          4.1 (      0.1 MIN)
 TOTAL WALL CLOCK TIME=          5.1 SECONDS, CPU UTILIZATION IS    80.66%
 ...... END OF 2-ELECTRON GRADIENT ......
 CPU     0: STEP CPU TIME=     0.00 TOTAL CPU TIME=          4.1 (      0.1 MIN)
 TOTAL WALL CLOCK TIME=          5.1 SECONDS, CPU UTILIZATION IS    80.66%

 UNITS ARE HARTREE/BOHR    E'X               E'Y               E'Z 
    1 O                0.001427359      -0.002140641       0.001436666
    2 H               -0.001393973       0.001853531      -0.001312579
    3 H               -0.000033386       0.000287110      -0.000124087
  $VIB   
          IVIB=   2 IATOM=   2 ICOORD=   1 E=      -76.3418878759
  1.427358882E-03-2.140640543E-03 1.436666281E-03-1.393973185E-03 1.853531006E-03
 -1.312578888E-03-3.338570948E-05 2.871095304E-04-1.240874029E-04
 -1.873127656E+00 1.701560875E+00 1.051583211E+00
1   ATOM  2
                                        -------------------
   COORD  2                             NUCLEAR COORDINATES
                                        -------------------
     VIB  2

                       ATOM             X              Y              Z

                 1  O                6.707747       5.347900      -8.750934
                 2  H                5.797082       6.635184      -9.639583
                 3  H                6.137619       5.404840      -7.026672
 ...... END OF ONE-ELECTRON INTEGRALS ......
 CPU     0: STEP CPU TIME=     0.00 TOTAL CPU TIME=          4.1 (      0.1 MIN)
 TOTAL WALL CLOCK TIME=          5.1 SECONDS, CPU UTILIZATION IS    80.66%
 TOTAL NUMBER OF NONZERO TWO-ELECTRON INTEGRALS =               34564
          8 INTEGRAL RECORDS WERE STORED ON DISK FILE 21.
  ...... END OF TWO-ELECTRON INTEGRALS .....
 CPU     0: STEP CPU TIME=     0.00 TOTAL CPU TIME=          4.1 (      0.1 MIN)
 TOTAL WALL CLOCK TIME=          5.1 SECONDS, CPU UTILIZATION IS    80.66%
 TOTAL NUMBER OF NONZERO TWO-ELECTRON INTEGRALS =               34641
          8 INTEGRAL RECORDS WERE STORED ON DISK FILE  8.
  ...... END OF TWO-ELECTRON INTEGRALS .....
 CPU     0: STEP CPU TIME=     0.00 TOTAL CPU TIME=          4.1 (      0.1 MIN)
 TOTAL WALL CLOCK TIME=          5.1 SECONDS, CPU UTILIZATION IS    80.57%

     ----------------------------
     INPUT FOR TESSERA DEFINITION
     ----------------------------
     NTSALL  =        60     MTHALL  =         4
     MTHAUT  =         0     AUTFRE  =    2.0000
     NTSFRZ  =        60     KEEPSM  =         0
     AREAKP  =   10.0000     BONDRY  =    1.0000
     AREATL  =    0.0100

     SPHERE     INITS       METHOD
          1        60       FIXPVA
          2        60       FIXPVA
          3        60       FIXPVA

     ------------------------------
      FIXPVA TESSELLATION FOR PCM
         PEIFENG SU AND HUI LI
     UNIVERSITY OF NEBRASKA-LINCOLN
     ------------------------------


     INPUT FOR CAVITY DEFINITION 
     ---------------------------
   ATOM               COORDINATES                RADIUS       EPS
      1      3.5496      2.8300     -4.6308      1.5000     78.3900
      2      3.0677      3.5112     -5.1010      1.2000     78.3900
      3      3.2479      2.8601     -3.7184      1.2000     78.3900

 MEMORY USED TO GENERATE CAVITY=    176782


 TOTAL NUMBER OF SPHERES=     3
 SPHERE           CENTER  (X,Y,Z) (A)               RADIUS (A)      AREA(A*A)
     1   3.549587368   2.829986773  -4.630795267   1.800000000  21.567890000
     2   3.067684061   3.511188545  -5.101047760   1.440000000  10.307044028
     3   3.247888095   2.860118236  -3.718354808   1.440000000  10.056614565

 TOTAL NUMBER OF TESSERAE=      88
 SURFACE AREA=    41.93154859(A**2)    CAVITY VOLUME=     28.07743167 (A**3)
 CPU     0: STEP CPU TIME=     0.00 TOTAL CPU TIME=          4.1 (      0.1 MIN)
 TOTAL WALL CLOCK TIME=          5.1 SECONDS, CPU UTILIZATION IS    80.57%

          THE SOLUTE IS ENCLOSED IN ONE CAVITY
 DONE CHECKING SEPARATION.
 CPU     0: STEP CPU TIME=     0.00 TOTAL CPU TIME=          4.1 (      0.1 MIN)
 TOTAL WALL CLOCK TIME=          5.1 SECONDS, CPU UTILIZATION IS    80.57%

 ..... DONE SETTING UP PCM CALCULATION .....
 CPU     0: STEP CPU TIME=     0.00 TOTAL CPU TIME=          4.1 (      0.1 MIN)
 TOTAL WALL CLOCK TIME=          5.1 SECONDS, CPU UTILIZATION IS    80.57%
 NUCLEI-NUCLEAR CHARGE POLARIZATION ADJUSTMENT TO VNN=        0.0000000000

          --------------------------
           R-WB97X-D SCF CALCULATION
          --------------------------
         DENSITY MATRIX CONVERGENCE THRESHOLD=  1.00E-05
     COARSE -> FINE DFT GRID SWITCH THRESHOLD=  3.00E-04 (SWITCH IN $DFT)
                   HF -> DFT SWITCH THRESHOLD=  5.00E-03 (SWOFF IN $DFT)

 ITER EX DEM     TOTAL ENERGY        E CHANGE  DENSITY CHANGE    DIIS ERROR      VIR. SHIFT       DAMPING
          * * *   INITIATING DIIS PROCEDURE   * * *
   1  0  0      -76.3418435204   -76.3418435204   0.001452062   0.001785196     0.000000000     1.000000000
   2  1  0      -76.3418505466    -0.0000070262   0.000258316   0.000383732     0.000000000     1.000000000
   3  2  0      -76.3418507195    -0.0000001728   0.000154533   0.000358077     0.000000000     1.000000000
   4  3  0      -76.3418508508    -0.0000001313   0.000059436   0.000054884     0.000000000     1.000000000
   5  4  0      -76.3418508574    -0.0000000066   0.000015531   0.000007382     0.000000000     1.000000000
   6  5  0      -76.3418508577    -0.0000000002   0.000002083   0.000001052     0.000000000     1.000000000
   7  6  0      -76.3418508577    -0.0000000000   0.000000507   0.000000165     0.000000000     1.000000000

          -----------------
          DENSITY CONVERGED
          -----------------
     TIME TO FORM FOCK OPERATORS=       0.2 SECONDS (       0.0 SEC/ITER)
     TIME TO SOLVE SCF EQUATIONS=       0.0 SECONDS (       0.0 SEC/ITER)

          ----------------------------
          DFT-D PARAMETERS AND RESULTS
          ----------------------------
 C6 COEFFICIENTS USED:
       1 C6 FOR ELEMENT   1
  Z=  1 C6(AA)=    2.43
       1 C6 FOR ELEMENT   8
  Z=  8 C6(AA)=   12.14

 #          XYZ [AU]             R0(AA) [ANG.]  CN         C6(AA)     C8(AA)   C10(AA) [AU]
  1   6.70775   5.34790  -8.75093    8  1.220  1.988        12.1       245.0      6057.3
  2   5.79708   6.63518  -9.63958    1  0.910  0.995         2.4        29.4       434.7
  3   6.13762   5.40484  -7.02667    1  0.910  0.995         2.4        29.4       434.7

     MOLECULAR C6(AA) [AU] =        43.57

           DFT-D V2

 FUNCTIONAL: WB97X-D 

 PARAMETERS
 S6       :    1.0000
 RS6      :    1.1000
 USING CHAI-HEAD-GORDON DAMPING FUNCTION
 ALPHA6   :    6.0000

 EDISP /KCAL,AU:    -0.0185 -0.00002941

 E6    /KCAL :    -0.0185

 FINAL R-WB97X-D ENERGY IS      -76.3418802658 AFTER   7 ITERATIONS
 DFT EXCHANGE + CORRELATION ENERGY =        -6.4559695460
 TOTAL ELECTRON NUMBER             =        10.0000084326
 GRIMME'S DISPERSION ENERGY                     =       -0.0000294081
 ENERGY WITHOUT GRIMME'S DISPERSION CORRECTION IS      -76.3418508577

 Alpha HOMO=   -11.137172 eV, LUMO=    3.788286 eV, gap=   14.925458 eV
  
   PCM ASC=     -0.0114538650
   GCAVP  =      0.0000000000
   GDISP  =      0.0000000000
   GREP   =      0.0000000000
 ...... END OF RHF CALCULATION ......
 CPU     0: STEP CPU TIME=     0.18 TOTAL CPU TIME=          4.3 (      0.1 MIN)
 TOTAL WALL CLOCK TIME=          5.4 SECONDS, CPU UTILIZATION IS    80.78%

 .... DONE WITH PCM CONTRIBUTION TO GRADIENT ....
 CPU     0: STEP CPU TIME=     0.00 TOTAL CPU TIME=          4.3 (      0.1 MIN)
 TOTAL WALL CLOCK TIME=          5.4 SECONDS, CPU UTILIZATION IS    80.78%

          ----------------------------
          DFT-D PARAMETERS AND RESULTS
          ----------------------------
 C6 COEFFICIENTS USED:
       1 C6 FOR ELEMENT   1
  Z=  1 C6(AA)=    2.43
       1 C6 FOR ELEMENT   8
  Z=  8 C6(AA)=   12.14

 #          XYZ [AU]             R0(AA) [ANG.]  CN         C6(AA)     C8(AA)   C10(AA) [AU]
  1   6.70775   5.34790  -8.75093    8  1.220  1.988        12.1       245.0      6057.3
  2   5.79708   6.63518  -9.63958    1  0.910  0.995         2.4        29.4       434.7
  3   6.13762   5.40484  -7.02667    1  0.910  0.995         2.4        29.4       434.7

     MOLECULAR C6(AA) [AU] =        43.57

           DFT-D V2

 FUNCTIONAL: WB97X-D 

 PARAMETERS
 S6       :    1.0000
 RS6      :    1.1000
 USING CHAI-HEAD-GORDON DAMPING FUNCTION
 ALPHA6   :    6.0000

 EDISP /KCAL,AU:    -0.0185 -0.00002941

 E6    /KCAL :    -0.0185
 ..... END OF 1-ELECTRON GRADIENT ......
 CPU     0: STEP CPU TIME=     0.01 TOTAL CPU TIME=          4.3 (      0.1 MIN)
 TOTAL WALL CLOCK TIME=          5.4 SECONDS, CPU UTILIZATION IS    80.81%
 MEMORY FOR GRID POINT CONTRIBUTIONS TO THE DFT GRADIENT=    136230 WORDS.
 CPU     0: STEP CPU TIME=     0.02 TOTAL CPU TIME=          4.4 (      0.1 MIN)
 TOTAL WALL CLOCK TIME=          5.4 SECONDS, CPU UTILIZATION IS    80.38%
 ...... END OF 2-ELECTRON GRADIENT ......
 CPU     0: STEP CPU TIME=     0.00 TOTAL CPU TIME=          4.4 (      0.1 MIN)
 TOTAL WALL CLOCK TIME=          5.4 SECONDS, CPU UTILIZATION IS    80.37%

 UNITS ARE HARTREE/BOHR    E'X               E'Y               E'Z 
    1 O               -0.001980412       0.002695899      -0.001913495
    2 H                0.001966642      -0.002854732       0.001807999
    3 H                0.000013771       0.000158833       0.000105496
  $VIB   
          IVIB=   2 IATOM=   2 ICOORD=   2 E=      -76.3418802658
 -1.980412188E-03 2.695898642E-03-1.913494942E-03 1.966641673E-03-2.854731876E-03
  1.807999392E-03 1.377050199E-05 1.588332271E-04 1.054955408E-04
 -1.866409093E+00 1.695854930E+00 1.050044618E+00
1   ATOM  2
                                        -------------------
   COORD  3                             NUCLEAR COORDINATES
                                        -------------------
     VIB  2

                       ATOM             X              Y              Z

                 1  O                6.707747       5.347900      -8.750934
                 2  H                5.797082       6.645184      -9.649583
                 3  H                6.137619       5.404840      -7.026672
 ...... END OF ONE-ELECTRON INTEGRALS ......
 CPU     0: STEP CPU TIME=     0.00 TOTAL CPU TIME=          4.4 (      0.1 MIN)
 TOTAL WALL CLOCK TIME=          5.4 SECONDS, CPU UTILIZATION IS    80.38%
 TOTAL NUMBER OF NONZERO TWO-ELECTRON INTEGRALS =               34564
          8 INTEGRAL RECORDS WERE STORED ON DISK FILE 21.
  ...... END OF TWO-ELECTRON INTEGRALS .....
 CPU     0: STEP CPU TIME=     0.00 TOTAL CPU TIME=          4.4 (      0.1 MIN)
 TOTAL WALL CLOCK TIME=          5.4 SECONDS, CPU UTILIZATION IS    80.31%
 TOTAL NUMBER OF NONZERO TWO-ELECTRON INTEGRALS =               34641
          8 INTEGRAL RECORDS WERE STORED ON DISK FILE  8.
  ...... END OF TWO-ELECTRON INTEGRALS .....
 CPU     0: STEP CPU TIME=     0.00 TOTAL CPU TIME=          4.4 (      0.1 MIN)
 TOTAL WALL CLOCK TIME=          5.4 SECONDS, CPU UTILIZATION IS    80.24%

     ----------------------------
     INPUT FOR TESSERA DEFINITION
     ----------------------------
     NTSALL  =        60     MTHALL  =         4
     MTHAUT  =         0     AUTFRE  =    2.0000
     NTSFRZ  =        60     KEEPSM  =         0
     AREAKP  =   10.0000     BONDRY  =    1.0000
     AREATL  =    0.0100

     SPHERE     INITS       METHOD
          1        60       FIXPVA
          2        60       FIXPVA
          3        60       FIXPVA

     ------------------------------
      FIXPVA TESSELLATION FOR PCM
         PEIFENG SU AND HUI LI
     UNIVERSITY OF NEBRASKA-LINCOLN
     ------------------------------


     INPUT FOR CAVITY DEFINITION 
     ---------------------------
   ATOM               COORDINATES                RADIUS       EPS
      1      3.5496      2.8300     -4.6308      1.5000     78.3900
      2      3.0677      3.5165     -5.1063      1.2000     78.3900
      3      3.2479      2.8601     -3.7184      1.2000     78.3900

 MEMORY USED TO GENERATE CAVITY=    176782


 TOTAL NUMBER OF SPHERES=     3
 SPHERE           CENTER  (X,Y,Z) (A)               RADIUS (A)      AREA(A*A)
     1   3.549587368   2.829986773  -4.630795267   1.800000000  21.563291968
     2   3.067684061   3.516480318  -5.106339532   1.440000000  10.362685367
     3   3.247888095   2.860118236  -3.718354808   1.440000000  10.057490983

 TOTAL NUMBER OF TESSERAE=      88
 SURFACE AREA=    41.98346832(A**2)    CAVITY VOLUME=     28.18064254 (A**3)
 CPU     0: STEP CPU TIME=     0.00 TOTAL CPU TIME=          4.4 (      0.1 MIN)
 TOTAL WALL CLOCK TIME=          5.4 SECONDS, CPU UTILIZATION IS    80.24%

          THE SOLUTE IS ENCLOSED IN ONE CAVITY
 DONE CHECKING SEPARATION.
 CPU     0: STEP CPU TIME=     0.00 TOTAL CPU TIME=          4.4 (      0.1 MIN)
 TOTAL WALL CLOCK TIME=          5.4 SECONDS, CPU UTILIZATION IS    80.24%

 ..... DONE SETTING UP PCM CALCULATION .....
 CPU     0: STEP CPU TIME=     0.00 TOTAL CPU TIME=          4.4 (      0.1 MIN)
 TOTAL WALL CLOCK TIME=          5.4 SECONDS, CPU UTILIZATION IS    80.21%
 NUCLEI-NUCLEAR CHARGE POLARIZATION ADJUSTMENT TO VNN=        0.0000000000

          --------------------------
           R-WB97X-D SCF CALCULATION
          --------------------------
         DENSITY MATRIX CONVERGENCE THRESHOLD=  1.00E-05
     COARSE -> FINE DFT GRID SWITCH THRESHOLD=  3.00E-04 (SWITCH IN $DFT)
                   HF -> DFT SWITCH THRESHOLD=  5.00E-03 (SWOFF IN $DFT)

 ITER EX DEM     TOTAL ENERGY        E CHANGE  DENSITY CHANGE    DIIS ERROR      VIR. SHIFT       DAMPING
          * * *   INITIATING DIIS PROCEDURE   * * *
   1  0  0      -76.3418496107   -76.3418496107   0.001148242   0.001460838     0.000000000     1.000000000
   2  1  0      -76.3418546198    -0.0000050091   0.000190236   0.000260795     0.000000000     1.000000000
   3  2  0      -76.3418547262    -0.0000001064   0.000109655   0.000256108     0.000000000     1.000000000
   4  3  0      -76.3418547888    -0.0000000626   0.000027093   0.000049254     0.000000000     1.000000000
   5  4  0      -76.3418547926    -0.0000000038   0.000006515   0.000005519     0.000000000     1.000000000
   6  5  0      -76.3418547927    -0.0000000001   0.000001209   0.000000718     0.000000000     1.000000000

          -----------------
          DENSITY CONVERGED
          -----------------
     TIME TO FORM FOCK OPERATORS=       0.1 SECONDS (       0.0 SEC/ITER)
     TIME TO SOLVE SCF EQUATIONS=       0.0 SECONDS (       0.0 SEC/ITER)

          ----------------------------
          DFT-D PARAMETERS AND RESULTS
          ----------------------------
 C6 COEFFICIENTS USED:
       1 C6 FOR ELEMENT   1
  Z=  1 C6(AA)=    2.43
       1 C6 FOR ELEMENT   8
  Z=  8 C6(AA)=   12.14

 #          XYZ [AU]             R0(AA) [ANG.]  CN         C6(AA)     C8(AA)   C10(AA) [AU]
  1   6.70775   5.34790  -8.75093    8  1.220  1.987        12.1       245.0      6057.3
  2   5.79708   6.64518  -9.64958    1  0.910  0.994         2.4        29.4       434.7
  3   6.13762   5.40484  -7.02667    1  0.910  0.995         2.4        29.4       434.7

     MOLECULAR C6(AA) [AU] =        43.57

           DFT-D V2

 FUNCTIONAL: WB97X-D 

 PARAMETERS
 S6       :    1.0000
 RS6      :    1.1000
 USING CHAI-HEAD-GORDON DAMPING FUNCTION
 ALPHA6   :    6.0000

 EDISP /KCAL,AU:    -0.0190 -0.00003020

 E6    /KCAL :    -0.0190

 FINAL R-WB97X-D ENERGY IS      -76.3418849922 AFTER   6 ITERATIONS
 DFT EXCHANGE + CORRELATION ENERGY =        -6.4535911378
 TOTAL ELECTRON NUMBER             =        10.0000089303
 GRIMME'S DISPERSION ENERGY                     =       -0.0000301995
 ENERGY WITHOUT GRIMME'S DISPERSION CORRECTION IS      -76.3418547927

 Alpha HOMO=   -11.129429 eV, LUMO=    3.781398 eV, gap=   14.910827 eV
  
   PCM ASC=     -0.0114985353
   GCAVP  =      0.0000000000
   GDISP  =      0.0000000000
   GREP   =      0.0000000000
 ...... END OF RHF CALCULATION ......
 CPU     0: STEP CPU TIME=     0.15 TOTAL CPU TIME=          4.5 (      0.1 MIN)
 TOTAL WALL CLOCK TIME=          5.6 SECONDS, CPU UTILIZATION IS    80.23%

 .... DONE WITH PCM CONTRIBUTION TO GRADIENT ....
 CPU     0: STEP CPU TIME=     0.00 TOTAL CPU TIME=          4.5 (      0.1 MIN)
 TOTAL WALL CLOCK TIME=          5.6 SECONDS, CPU UTILIZATION IS    80.23%

          ----------------------------
          DFT-D PARAMETERS AND RESULTS
          ----------------------------
 C6 COEFFICIENTS USED:
       1 C6 FOR ELEMENT   1
  Z=  1 C6(AA)=    2.43
       1 C6 FOR ELEMENT   8
  Z=  8 C6(AA)=   12.14

 #          XYZ [AU]             R0(AA) [ANG.]  CN         C6(AA)     C8(AA)   C10(AA) [AU]
  1   6.70775   5.34790  -8.75093    8  1.220  1.987        12.1       245.0      6057.3
  2   5.79708   6.64518  -9.64958    1  0.910  0.994         2.4        29.4       434.7
  3   6.13762   5.40484  -7.02667    1  0.910  0.995         2.4        29.4       434.7

     MOLECULAR C6(AA) [AU] =        43.57

           DFT-D V2

 FUNCTIONAL: WB97X-D 

 PARAMETERS
 S6       :    1.0000
 RS6      :    1.1000
 USING CHAI-HEAD-GORDON DAMPING FUNCTION
 ALPHA6   :    6.0000

 EDISP /KCAL,AU:    -0.0190 -0.00003020

 E6    /KCAL :    -0.0190
 ..... END OF 1-ELECTRON GRADIENT ......
 CPU     0: STEP CPU TIME=     0.01 TOTAL CPU TIME=          4.5 (      0.1 MIN)
 TOTAL WALL CLOCK TIME=          5.6 SECONDS, CPU UTILIZATION IS    80.20%
 MEMORY FOR GRID POINT CONTRIBUTIONS TO THE DFT GRADIENT=    136230 WORDS.
 CPU     0: STEP CPU TIME=     0.03 TOTAL CPU TIME=          4.5 (      0.1 MIN)
 TOTAL WALL CLOCK TIME=          5.7 SECONDS, CPU UTILIZATION IS    80.27%
 ...... END OF 2-ELECTRON GRADIENT ......
 CPU     0: STEP CPU TIME=     0.00 TOTAL CPU TIME=          4.5 (      0.1 MIN)
 TOTAL WALL CLOCK TIME=          5.7 SECONDS, CPU UTILIZATION IS    80.27%

 UNITS ARE HARTREE/BOHR    E'X               E'Y               E'Z 
    1 O                0.000922163      -0.001678200       0.001687098
    2 H               -0.001188304       0.001821121      -0.001846859
    3 H                0.000266141      -0.000142920       0.000159761
  $VIB   
          IVIB=   2 IATOM=   2 ICOORD=   3 E=      -76.3418849922
  9.221629762E-04-1.678200145E-03 1.687098428E-03-1.188304283E-03 1.821120582E-03
 -1.846858939E-03 2.661412939E-04-1.429204442E-04 1.597605010E-04
 -1.864240937E+00 1.704955833E+00 1.040943612E+00
1   ATOM  3
                                        -------------------
   COORD  1                             NUCLEAR COORDINATES
                                        -------------------
     VIB  2

                       ATOM             X              Y              Z

                 1  O                6.707747       5.347900      -8.750934
                 2  H                5.797082       6.645184      -9.639583
                 3  H                6.127619       5.404840      -7.026672
 ...... END OF ONE-ELECTRON INTEGRALS ......
 CPU     0: STEP CPU TIME=     0.00 TOTAL CPU TIME=          4.5 (      0.1 MIN)
 TOTAL WALL CLOCK TIME=          5.7 SECONDS, CPU UTILIZATION IS    80.27%
 TOTAL NUMBER OF NONZERO TWO-ELECTRON INTEGRALS =               34567
          8 INTEGRAL RECORDS WERE STORED ON DISK FILE 21.
  ...... END OF TWO-ELECTRON INTEGRALS .....
 CPU     0: STEP CPU TIME=     0.00 TOTAL CPU TIME=          4.5 (      0.1 MIN)
 TOTAL WALL CLOCK TIME=          5.7 SECONDS, CPU UTILIZATION IS    80.26%
 TOTAL NUMBER OF NONZERO TWO-ELECTRON INTEGRALS =               34641
          8 INTEGRAL RECORDS WERE STORED ON DISK FILE  8.
  ...... END OF TWO-ELECTRON INTEGRALS .....
 CPU     0: STEP CPU TIME=     0.00 TOTAL CPU TIME=          4.5 (      0.1 MIN)
 TOTAL WALL CLOCK TIME=          5.7 SECONDS, CPU UTILIZATION IS    80.25%

     ----------------------------
     INPUT FOR TESSERA DEFINITION
     ----------------------------
     NTSALL  =        60     MTHALL  =         4
     MTHAUT  =         0     AUTFRE  =    2.0000
     NTSFRZ  =        60     KEEPSM  =         0
     AREAKP  =   10.0000     BONDRY  =    1.0000
     AREATL  =    0.0100

     SPHERE     INITS       METHOD
          1        60       FIXPVA
          2        60       FIXPVA
          3        60       FIXPVA

     ------------------------------
      FIXPVA TESSELLATION FOR PCM
         PEIFENG SU AND HUI LI
     UNIVERSITY OF NEBRASKA-LINCOLN
     ------------------------------


     INPUT FOR CAVITY DEFINITION 
     ---------------------------
   ATOM               COORDINATES                RADIUS       EPS
      1      3.5496      2.8300     -4.6308      1.5000     78.3900
      2      3.0677      3.5165     -5.1010      1.2000     78.3900
      3      3.2426      2.8601     -3.7184      1.2000     78.3900

 MEMORY USED TO GENERATE CAVITY=    176782


 TOTAL NUMBER OF SPHERES=     3
 SPHERE           CENTER  (X,Y,Z) (A)               RADIUS (A)      AREA(A*A)
     1   3.549587368   2.829986773  -4.630795267   1.800000000  21.606952942
     2   3.067684061   3.516480318  -5.101047760   1.440000000  10.337436908
     3   3.242596322   2.860118236  -3.718354808   1.440000000  10.022468410

 TOTAL NUMBER OF TESSERAE=      88
 SURFACE AREA=    41.96685826(A**2)    CAVITY VOLUME=     28.11640172 (A**3)
 CPU     0: STEP CPU TIME=     0.00 TOTAL CPU TIME=          4.5 (      0.1 MIN)
 TOTAL WALL CLOCK TIME=          5.7 SECONDS, CPU UTILIZATION IS    80.25%

          THE SOLUTE IS ENCLOSED IN ONE CAVITY
 DONE CHECKING SEPARATION.
 CPU     0: STEP CPU TIME=     0.00 TOTAL CPU TIME=          4.5 (      0.1 MIN)
 TOTAL WALL CLOCK TIME=          5.7 SECONDS, CPU UTILIZATION IS    80.25%

 ..... DONE SETTING UP PCM CALCULATION .....
 CPU     0: STEP CPU TIME=     0.00 TOTAL CPU TIME=          4.5 (      0.1 MIN)
 TOTAL WALL CLOCK TIME=          5.7 SECONDS, CPU UTILIZATION IS    80.25%
 NUCLEI-NUCLEAR CHARGE POLARIZATION ADJUSTMENT TO VNN=        0.0000000000

          --------------------------
           R-WB97X-D SCF CALCULATION
          --------------------------
         DENSITY MATRIX CONVERGENCE THRESHOLD=  1.00E-05
     COARSE -> FINE DFT GRID SWITCH THRESHOLD=  3.00E-04 (SWITCH IN $DFT)
                   HF -> DFT SWITCH THRESHOLD=  5.00E-03 (SWOFF IN $DFT)

 ITER EX DEM     TOTAL ENERGY        E CHANGE  DENSITY CHANGE    DIIS ERROR      VIR. SHIFT       DAMPING
          * * *   INITIATING DIIS PROCEDURE   * * *
   1  0  0      -76.3418575551   -76.3418575551   0.001096176   0.001045960     0.000000000     1.000000000
   2  1  0      -76.3418621322    -0.0000045771   0.000315284   0.000172090     0.000000000     1.000000000
   3  2  0      -76.3418622743    -0.0000001421   0.000083032   0.000184732     0.000000000     1.000000000
   4  3  0      -76.3418623099    -0.0000000356   0.000057943   0.000044388     0.000000000     1.000000000
   5  4  0      -76.3418623135    -0.0000000037   0.000010747   0.000003488     0.000000000     1.000000000
   6  5  0      -76.3418623136    -0.0000000001   0.000001520   0.000000564     0.000000000     1.000000000
   7  6  0      -76.3418623136     0.0000000000   0.000000452   0.000000095     0.000000000     1.000000000

          -----------------
          DENSITY CONVERGED
          -----------------
     TIME TO FORM FOCK OPERATORS=       0.2 SECONDS (       0.0 SEC/ITER)
     TIME TO SOLVE SCF EQUATIONS=       0.0 SECONDS (       0.0 SEC/ITER)

          ----------------------------
          DFT-D PARAMETERS AND RESULTS
          ----------------------------
 C6 COEFFICIENTS USED:
       1 C6 FOR ELEMENT   1
  Z=  1 C6(AA)=    2.43
       1 C6 FOR ELEMENT   8
  Z=  8 C6(AA)=   12.14

 #          XYZ [AU]             R0(AA) [ANG.]  CN         C6(AA)     C8(AA)   C10(AA) [AU]
  1   6.70775   5.34790  -8.75093    8  1.220  1.987        12.1       245.0      6057.3
  2   5.79708   6.64518  -9.63958    1  0.910  0.995         2.4        29.4       434.7
  3   6.12762   5.40484  -7.02667    1  0.910  0.994         2.4        29.4       434.7

     MOLECULAR C6(AA) [AU] =        43.57

           DFT-D V2

 FUNCTIONAL: WB97X-D 

 PARAMETERS
 S6       :    1.0000
 RS6      :    1.1000
 USING CHAI-HEAD-GORDON DAMPING FUNCTION
 ALPHA6   :    6.0000

 EDISP /KCAL,AU:    -0.0186 -0.00002961

 E6    /KCAL :    -0.0186

 FINAL R-WB97X-D ENERGY IS      -76.3418919194 AFTER   7 ITERATIONS
 DFT EXCHANGE + CORRELATION ENERGY =        -6.4539968113
 TOTAL ELECTRON NUMBER             =        10.0000084558
 GRIMME'S DISPERSION ENERGY                     =       -0.0000296058
 ENERGY WITHOUT GRIMME'S DISPERSION CORRECTION IS      -76.3418623136

 Alpha HOMO=   -11.132498 eV, LUMO=    3.778444 eV, gap=   14.910942 eV
  
   PCM ASC=     -0.0114457656
   GCAVP  =      0.0000000000
   GDISP  =      0.0000000000
   GREP   =      0.0000000000
 ...... END OF RHF CALCULATION ......
 CPU     0: STEP CPU TIME=     0.17 TOTAL CPU TIME=          4.7 (      0.1 MIN)
 TOTAL WALL CLOCK TIME=          5.9 SECONDS, CPU UTILIZATION IS    80.50%

 .... DONE WITH PCM CONTRIBUTION TO GRADIENT ....
 CPU     0: STEP CPU TIME=     0.00 TOTAL CPU TIME=          4.7 (      0.1 MIN)
 TOTAL WALL CLOCK TIME=          5.9 SECONDS, CPU UTILIZATION IS    80.49%

          ----------------------------
          DFT-D PARAMETERS AND RESULTS
          ----------------------------
 C6 COEFFICIENTS USED:
       1 C6 FOR ELEMENT   1
  Z=  1 C6(AA)=    2.43
       1 C6 FOR ELEMENT   8
  Z=  8 C6(AA)=   12.14

 #          XYZ [AU]             R0(AA) [ANG.]  CN         C6(AA)     C8(AA)   C10(AA) [AU]
  1   6.70775   5.34790  -8.75093    8  1.220  1.987        12.1       245.0      6057.3
  2   5.79708   6.64518  -9.63958    1  0.910  0.995         2.4        29.4       434.7
  3   6.12762   5.40484  -7.02667    1  0.910  0.994         2.4        29.4       434.7

     MOLECULAR C6(AA) [AU] =        43.57

           DFT-D V2

 FUNCTIONAL: WB97X-D 

 PARAMETERS
 S6       :    1.0000
 RS6      :    1.1000
 USING CHAI-HEAD-GORDON DAMPING FUNCTION
 ALPHA6   :    6.0000

 EDISP /KCAL,AU:    -0.0186 -0.00002961

 E6    /KCAL :    -0.0186
 ..... END OF 1-ELECTRON GRADIENT ......
 CPU     0: STEP CPU TIME=     0.01 TOTAL CPU TIME=          4.7 (      0.1 MIN)
 TOTAL WALL CLOCK TIME=          5.9 SECONDS, CPU UTILIZATION IS    80.52%
 MEMORY FOR GRID POINT CONTRIBUTIONS TO THE DFT GRADIENT=    136230 WORDS.
 CPU     0: STEP CPU TIME=     0.02 TOTAL CPU TIME=          4.8 (      0.1 MIN)
 TOTAL WALL CLOCK TIME=          5.9 SECONDS, CPU UTILIZATION IS    80.58%
 ...... END OF 2-ELECTRON GRADIENT ......
 CPU     0: STEP CPU TIME=     0.00 TOTAL CPU TIME=          4.8 (      0.1 MIN)
 TOTAL WALL CLOCK TIME=          5.9 SECONDS, CPU UTILIZATION IS    80.58%

 UNITS ARE HARTREE/BOHR    E'X               E'Y               E'Z 
    1 O                0.000651528      -0.000322937      -0.001633159
    2 H               -0.000049537      -0.000067925       0.000125723
    3 H               -0.000601991       0.000390862       0.001507436
  $VIB   
          IVIB=   2 IATOM=   3 ICOORD=   1 E=      -76.3418919194
  6.515281191E-04-3.229371328E-04-1.633159018E-03-4.953672611E-05-6.792516091E-05
  1.257226420E-04-6.019914055E-04 3.908622866E-04 1.507436367E-03
 -1.873716662E+00 1.703076511E+00 1.048517037E+00
1   ATOM  3
                                        -------------------
   COORD  2                             NUCLEAR COORDINATES
                                        -------------------
     VIB  2

                       ATOM             X              Y              Z

                 1  O                6.707747       5.347900      -8.750934
                 2  H                5.797082       6.645184      -9.639583
                 3  H                6.137619       5.394840      -7.026672
 ...... END OF ONE-ELECTRON INTEGRALS ......
 CPU     0: STEP CPU TIME=     0.00 TOTAL CPU TIME=          4.8 (      0.1 MIN)
 TOTAL WALL CLOCK TIME=          5.9 SECONDS, CPU UTILIZATION IS    80.58%
 TOTAL NUMBER OF NONZERO TWO-ELECTRON INTEGRALS =               34554
          8 INTEGRAL RECORDS WERE STORED ON DISK FILE 21.
  ...... END OF TWO-ELECTRON INTEGRALS .....
 CPU     0: STEP CPU TIME=     0.00 TOTAL CPU TIME=          4.8 (      0.1 MIN)
 TOTAL WALL CLOCK TIME=          5.9 SECONDS, CPU UTILIZATION IS    80.57%
 TOTAL NUMBER OF NONZERO TWO-ELECTRON INTEGRALS =               34641
          8 INTEGRAL RECORDS WERE STORED ON DISK FILE  8.
  ...... END OF TWO-ELECTRON INTEGRALS .....
 CPU     0: STEP CPU TIME=     0.00 TOTAL CPU TIME=          4.8 (      0.1 MIN)
 TOTAL WALL CLOCK TIME=          5.9 SECONDS, CPU UTILIZATION IS    80.57%

     ----------------------------
     INPUT FOR TESSERA DEFINITION
     ----------------------------
     NTSALL  =        60     MTHALL  =         4
     MTHAUT  =         0     AUTFRE  =    2.0000
     NTSFRZ  =        60     KEEPSM  =         0
     AREAKP  =   10.0000     BONDRY  =    1.0000
     AREATL  =    0.0100

     SPHERE     INITS       METHOD
          1        60       FIXPVA
          2        60       FIXPVA
          3        60       FIXPVA

     ------------------------------
      FIXPVA TESSELLATION FOR PCM
         PEIFENG SU AND HUI LI
     UNIVERSITY OF NEBRASKA-LINCOLN
     ------------------------------


     INPUT FOR CAVITY DEFINITION 
     ---------------------------
   ATOM               COORDINATES                RADIUS       EPS
      1      3.5496      2.8300     -4.6308      1.5000     78.3900
      2      3.0677      3.5165     -5.1010      1.2000     78.3900
      3      3.2479      2.8548     -3.7184      1.2000     78.3900

 MEMORY USED TO GENERATE CAVITY=    176782


 TOTAL NUMBER OF SPHERES=     3
 SPHERE           CENTER  (X,Y,Z) (A)               RADIUS (A)      AREA(A*A)
     1   3.549587368   2.829986773  -4.630795267   1.800000000  21.530406246
     2   3.067684061   3.516480318  -5.101047760   1.440000000  10.341922266
     3   3.247888095   2.854826463  -3.718354808   1.440000000  10.054498041

 TOTAL NUMBER OF TESSERAE=      88
 SURFACE AREA=    41.92682655(A**2)    CAVITY VOLUME=     28.19120154 (A**3)
 CPU     0: STEP CPU TIME=     0.00 TOTAL CPU TIME=          4.8 (      0.1 MIN)
 TOTAL WALL CLOCK TIME=          5.9 SECONDS, CPU UTILIZATION IS    80.57%

          THE SOLUTE IS ENCLOSED IN ONE CAVITY
 DONE CHECKING SEPARATION.
 CPU     0: STEP CPU TIME=     0.00 TOTAL CPU TIME=          4.8 (      0.1 MIN)
 TOTAL WALL CLOCK TIME=          5.9 SECONDS, CPU UTILIZATION IS    80.57%

 ..... DONE SETTING UP PCM CALCULATION .....
 CPU     0: STEP CPU TIME=     0.00 TOTAL CPU TIME=          4.8 (      0.1 MIN)
 TOTAL WALL CLOCK TIME=          5.9 SECONDS, CPU UTILIZATION IS    80.57%
 NUCLEI-NUCLEAR CHARGE POLARIZATION ADJUSTMENT TO VNN=        0.0000000000

          --------------------------
           R-WB97X-D SCF CALCULATION
          --------------------------
         DENSITY MATRIX CONVERGENCE THRESHOLD=  1.00E-05
     COARSE -> FINE DFT GRID SWITCH THRESHOLD=  3.00E-04 (SWITCH IN $DFT)
                   HF -> DFT SWITCH THRESHOLD=  5.00E-03 (SWOFF IN $DFT)

 ITER EX DEM     TOTAL ENERGY        E CHANGE  DENSITY CHANGE    DIIS ERROR      VIR. SHIFT       DAMPING
          * * *   INITIATING DIIS PROCEDURE   * * *
   1  0  0      -76.3418615817   -76.3418615817   0.001256353   0.001012604     0.000000000     1.000000000
   2  1  0      -76.3418654387    -0.0000038571   0.000286729   0.000145592     0.000000000     1.000000000
   3  2  0      -76.3418655684    -0.0000001297   0.000082193   0.000023824     0.000000000     1.000000000
   4  3  0      -76.3418655730    -0.0000000046   0.000011064   0.000021428     0.000000000     1.000000000
   5  4  0      -76.3418655734    -0.0000000004   0.000006758   0.000004587     0.000000000     1.000000000
   6  5  0      -76.3418655735    -0.0000000001   0.000001113   0.000000423     0.000000000     1.000000000

          -----------------
          DENSITY CONVERGED
          -----------------
     TIME TO FORM FOCK OPERATORS=       0.1 SECONDS (       0.0 SEC/ITER)
     TIME TO SOLVE SCF EQUATIONS=       0.0 SECONDS (       0.0 SEC/ITER)

          ----------------------------
          DFT-D PARAMETERS AND RESULTS
          ----------------------------
 C6 COEFFICIENTS USED:
       1 C6 FOR ELEMENT   1
  Z=  1 C6(AA)=    2.43
       1 C6 FOR ELEMENT   8
  Z=  8 C6(AA)=   12.14

 #          XYZ [AU]             R0(AA) [ANG.]  CN         C6(AA)     C8(AA)   C10(AA) [AU]
  1   6.70775   5.34790  -8.75093    8  1.220  1.988        12.1       245.0      6057.3
  2   5.79708   6.64518  -9.63958    1  0.910  0.995         2.4        29.4       434.7
  3   6.13762   5.39484  -7.02667    1  0.910  0.995         2.4        29.4       434.7

     MOLECULAR C6(AA) [AU] =        43.57

           DFT-D V2

 FUNCTIONAL: WB97X-D 

 PARAMETERS
 S6       :    1.0000
 RS6      :    1.1000
 USING CHAI-HEAD-GORDON DAMPING FUNCTION
 ALPHA6   :    6.0000

 EDISP /KCAL,AU:    -0.0188 -0.00002991

 E6    /KCAL :    -0.0188

 FINAL R-WB97X-D ENERGY IS      -76.3418954878 AFTER   6 ITERATIONS
 DFT EXCHANGE + CORRELATION ENERGY =        -6.4546046439
 TOTAL ELECTRON NUMBER             =        10.0000082572
 GRIMME'S DISPERSION ENERGY                     =       -0.0000299143
 ENERGY WITHOUT GRIMME'S DISPERSION CORRECTION IS      -76.3418655735

 Alpha HOMO=   -11.132041 eV, LUMO=    3.785644 eV, gap=   14.917685 eV
  
   PCM ASC=     -0.0115208211
   GCAVP  =      0.0000000000
   GDISP  =      0.0000000000
   GREP   =      0.0000000000
 ...... END OF RHF CALCULATION ......
 CPU     0: STEP CPU TIME=     0.16 TOTAL CPU TIME=          4.9 (      0.1 MIN)
 TOTAL WALL CLOCK TIME=          6.1 SECONDS, CPU UTILIZATION IS    80.74%

 .... DONE WITH PCM CONTRIBUTION TO GRADIENT ....
 CPU     0: STEP CPU TIME=     0.00 TOTAL CPU TIME=          4.9 (      0.1 MIN)
 TOTAL WALL CLOCK TIME=          6.1 SECONDS, CPU UTILIZATION IS    80.73%

          ----------------------------
          DFT-D PARAMETERS AND RESULTS
          ----------------------------
 C6 COEFFICIENTS USED:
       1 C6 FOR ELEMENT   1
  Z=  1 C6(AA)=    2.43
       1 C6 FOR ELEMENT   8
  Z=  8 C6(AA)=   12.14

 #          XYZ [AU]             R0(AA) [ANG.]  CN         C6(AA)     C8(AA)   C10(AA) [AU]
  1   6.70775   5.34790  -8.75093    8  1.220  1.988        12.1       245.0      6057.3
  2   5.79708   6.64518  -9.63958    1  0.910  0.995         2.4        29.4       434.7
  3   6.13762   5.39484  -7.02667    1  0.910  0.995         2.4        29.4       434.7

     MOLECULAR C6(AA) [AU] =        43.57

           DFT-D V2

 FUNCTIONAL: WB97X-D 

 PARAMETERS
 S6       :    1.0000
 RS6      :    1.1000
 USING CHAI-HEAD-GORDON DAMPING FUNCTION
 ALPHA6   :    6.0000

 EDISP /KCAL,AU:    -0.0188 -0.00002991

 E6    /KCAL :    -0.0188
 ..... END OF 1-ELECTRON GRADIENT ......
 CPU     0: STEP CPU TIME=     0.01 TOTAL CPU TIME=          4.9 (      0.1 MIN)
 TOTAL WALL CLOCK TIME=          6.1 SECONDS, CPU UTILIZATION IS    80.76%
 MEMORY FOR GRID POINT CONTRIBUTIONS TO THE DFT GRADIENT=    136230 WORDS.
 CPU     0: STEP CPU TIME=     0.03 TOTAL CPU TIME=          5.0 (      0.1 MIN)
 TOTAL WALL CLOCK TIME=          6.1 SECONDS, CPU UTILIZATION IS    80.82%
 ...... END OF 2-ELECTRON GRADIENT ......
 CPU     0: STEP CPU TIME=     0.00 TOTAL CPU TIME=          5.0 (      0.1 MIN)
 TOTAL WALL CLOCK TIME=          6.1 SECONDS, CPU UTILIZATION IS    80.82%

 UNITS ARE HARTREE/BOHR    E'X               E'Y               E'Z 
    1 O               -0.000353064       0.000115528       0.000406649
    2 H                0.000119029      -0.000074823      -0.000437595
    3 H                0.000234035      -0.000040705       0.000030946
  $VIB   
          IVIB=   2 IATOM=   3 ICOORD=   2 E=      -76.3418954878
 -3.530639560E-04 1.155280724E-04 4.066489854E-04 1.190288221E-04-7.482288357E-05
 -4.375949272E-04 2.340351215E-04-4.070519593E-05 3.094593251E-05
 -1.865635006E+00 1.694317481E+00 1.052623292E+00
1   ATOM  3
                                        -------------------
   COORD  3                             NUCLEAR COORDINATES
                                        -------------------
     VIB  2

                       ATOM             X              Y              Z

                 1  O                6.707747       5.347900      -8.750934
                 2  H                5.797082       6.645184      -9.639583
                 3  H                6.137619       5.404840      -7.036672
 ...... END OF ONE-ELECTRON INTEGRALS ......
 CPU     0: STEP CPU TIME=     0.00 TOTAL CPU TIME=          5.0 (      0.1 MIN)
 TOTAL WALL CLOCK TIME=          6.1 SECONDS, CPU UTILIZATION IS    80.82%
 TOTAL NUMBER OF NONZERO TWO-ELECTRON INTEGRALS =               34568
          8 INTEGRAL RECORDS WERE STORED ON DISK FILE 21.
  ...... END OF TWO-ELECTRON INTEGRALS .....
 CPU     0: STEP CPU TIME=     0.00 TOTAL CPU TIME=          5.0 (      0.1 MIN)
 TOTAL WALL CLOCK TIME=          6.1 SECONDS, CPU UTILIZATION IS    80.80%
 TOTAL NUMBER OF NONZERO TWO-ELECTRON INTEGRALS =               34641
          8 INTEGRAL RECORDS WERE STORED ON DISK FILE  8.
  ...... END OF TWO-ELECTRON INTEGRALS .....
 CPU     0: STEP CPU TIME=     0.00 TOTAL CPU TIME=          5.0 (      0.1 MIN)
 TOTAL WALL CLOCK TIME=          6.1 SECONDS, CPU UTILIZATION IS    80.80%

     ----------------------------
     INPUT FOR TESSERA DEFINITION
     ----------------------------
     NTSALL  =        60     MTHALL  =         4
     MTHAUT  =         0     AUTFRE  =    2.0000
     NTSFRZ  =        60     KEEPSM  =         0
     AREAKP  =   10.0000     BONDRY  =    1.0000
     AREATL  =    0.0100

     SPHERE     INITS       METHOD
          1        60       FIXPVA
          2        60       FIXPVA
          3        60       FIXPVA

     ------------------------------
      FIXPVA TESSELLATION FOR PCM
         PEIFENG SU AND HUI LI
     UNIVERSITY OF NEBRASKA-LINCOLN
     ------------------------------


     INPUT FOR CAVITY DEFINITION 
     ---------------------------
   ATOM               COORDINATES                RADIUS       EPS
      1      3.5496      2.8300     -4.6308      1.5000     78.3900
      2      3.0677      3.5165     -5.1010      1.2000     78.3900
      3      3.2479      2.8601     -3.7236      1.2000     78.3900

 MEMORY USED TO GENERATE CAVITY=    176782


 TOTAL NUMBER OF SPHERES=     3
 SPHERE           CENTER  (X,Y,Z) (A)               RADIUS (A)      AREA(A*A)
     1   3.549587368   2.829986773  -4.630795267   1.800000000  21.591158588
     2   3.067684061   3.516480318  -5.101047760   1.440000000  10.338717924
     3   3.247888095   2.860118236  -3.723646581   1.440000000   9.992878784

 TOTAL NUMBER OF TESSERAE=      88
 SURFACE AREA=    41.92275530(A**2)    CAVITY VOLUME=     28.07566241 (A**3)
 CPU     0: STEP CPU TIME=     0.00 TOTAL CPU TIME=          5.0 (      0.1 MIN)
 TOTAL WALL CLOCK TIME=          6.1 SECONDS, CPU UTILIZATION IS    80.80%

          THE SOLUTE IS ENCLOSED IN ONE CAVITY
 DONE CHECKING SEPARATION.
 CPU     0: STEP CPU TIME=     0.00 TOTAL CPU TIME=          5.0 (      0.1 MIN)
 TOTAL WALL CLOCK TIME=          6.1 SECONDS, CPU UTILIZATION IS    80.80%

 ..... DONE SETTING UP PCM CALCULATION .....
 CPU     0: STEP CPU TIME=     0.00 TOTAL CPU TIME=          5.0 (      0.1 MIN)
 TOTAL WALL CLOCK TIME=          6.1 SECONDS, CPU UTILIZATION IS    80.79%
 NUCLEI-NUCLEAR CHARGE POLARIZATION ADJUSTMENT TO VNN=        0.0000000000

          --------------------------
           R-WB97X-D SCF CALCULATION
          --------------------------
         DENSITY MATRIX CONVERGENCE THRESHOLD=  1.00E-05
     COARSE -> FINE DFT GRID SWITCH THRESHOLD=  3.00E-04 (SWITCH IN $DFT)
                   HF -> DFT SWITCH THRESHOLD=  5.00E-03 (SWOFF IN $DFT)

 ITER EX DEM     TOTAL ENERGY        E CHANGE  DENSITY CHANGE    DIIS ERROR      VIR. SHIFT       DAMPING
          * * *   INITIATING DIIS PROCEDURE   * * *
   1  0  0      -76.3418308608   -76.3418308608   0.002026020   0.002397239     0.000000000     1.000000000
   2  1  0      -76.3418400081    -0.0000091473   0.000372241   0.000511918     0.000000000     1.000000000
   3  2  0      -76.3418402048    -0.0000001967   0.000176031   0.000450449     0.000000000     1.000000000
   4  3  0      -76.3418404074    -0.0000002027   0.000053398   0.000060904     0.000000000     1.000000000
   5  4  0      -76.3418404155    -0.0000000080   0.000019847   0.000009580     0.000000000     1.000000000
   6  5  0      -76.3418404158    -0.0000000004   0.000002322   0.000001207     0.000000000     1.000000000
   7  6  0      -76.3418404158    -0.0000000000   0.000000361   0.000000193     0.000000000     1.000000000

          -----------------
          DENSITY CONVERGED
          -----------------
     TIME TO FORM FOCK OPERATORS=       0.2 SECONDS (       0.0 SEC/ITER)
     TIME TO SOLVE SCF EQUATIONS=       0.0 SECONDS (       0.0 SEC/ITER)

          ----------------------------
          DFT-D PARAMETERS AND RESULTS
          ----------------------------
 C6 COEFFICIENTS USED:
       1 C6 FOR ELEMENT   1
  Z=  1 C6(AA)=    2.43
       1 C6 FOR ELEMENT   8
  Z=  8 C6(AA)=   12.14

 #          XYZ [AU]             R0(AA) [ANG.]  CN         C6(AA)     C8(AA)   C10(AA) [AU]
  1   6.70775   5.34790  -8.75093    8  1.220  1.988        12.1       245.0      6057.3
  2   5.79708   6.64518  -9.63958    1  0.910  0.995         2.4        29.4       434.7
  3   6.13762   5.40484  -7.03667    1  0.910  0.995         2.4        29.4       434.7

     MOLECULAR C6(AA) [AU] =        43.57

           DFT-D V2

 FUNCTIONAL: WB97X-D 

 PARAMETERS
 S6       :    1.0000
 RS6      :    1.1000
 USING CHAI-HEAD-GORDON DAMPING FUNCTION
 ALPHA6   :    6.0000

 EDISP /KCAL,AU:    -0.0183 -0.00002913

 E6    /KCAL :    -0.0183

 FINAL R-WB97X-D ENERGY IS      -76.3418695490 AFTER   7 ITERATIONS
 DFT EXCHANGE + CORRELATION ENERGY =        -6.4564567815
 TOTAL ELECTRON NUMBER             =        10.0000087257
 GRIMME'S DISPERSION ENERGY                     =       -0.0000291332
 ENERGY WITHOUT GRIMME'S DISPERSION CORRECTION IS      -76.3418404158

 Alpha HOMO=   -11.139329 eV, LUMO=    3.788440 eV, gap=   14.927769 eV
  
   PCM ASC=     -0.0114267548
   GCAVP  =      0.0000000000
   GDISP  =      0.0000000000
   GREP   =      0.0000000000
 ...... END OF RHF CALCULATION ......
 CPU     0: STEP CPU TIME=     0.18 TOTAL CPU TIME=          5.1 (      0.1 MIN)
 TOTAL WALL CLOCK TIME=          6.3 SECONDS, CPU UTILIZATION IS    81.02%

 .... DONE WITH PCM CONTRIBUTION TO GRADIENT ....
 CPU     0: STEP CPU TIME=     0.00 TOTAL CPU TIME=          5.1 (      0.1 MIN)
 TOTAL WALL CLOCK TIME=          6.4 SECONDS, CPU UTILIZATION IS    81.01%

          ----------------------------
          DFT-D PARAMETERS AND RESULTS
          ----------------------------
 C6 COEFFICIENTS USED:
       1 C6 FOR ELEMENT   1
  Z=  1 C6(AA)=    2.43
       1 C6 FOR ELEMENT   8
  Z=  8 C6(AA)=   12.14

 #          XYZ [AU]             R0(AA) [ANG.]  CN         C6(AA)     C8(AA)   C10(AA) [AU]
  1   6.70775   5.34790  -8.75093    8  1.220  1.988        12.1       245.0      6057.3
  2   5.79708   6.64518  -9.63958    1  0.910  0.995         2.4        29.4       434.7
  3   6.13762   5.40484  -7.03667    1  0.910  0.995         2.4        29.4       434.7

     MOLECULAR C6(AA) [AU] =        43.57

           DFT-D V2

 FUNCTIONAL: WB97X-D 

 PARAMETERS
 S6       :    1.0000
 RS6      :    1.1000
 USING CHAI-HEAD-GORDON DAMPING FUNCTION
 ALPHA6   :    6.0000

 EDISP /KCAL,AU:    -0.0183 -0.00002913

 E6    /KCAL :    -0.0183
 ..... END OF 1-ELECTRON GRADIENT ......
 CPU     0: STEP CPU TIME=     0.01 TOTAL CPU TIME=          5.2 (      0.1 MIN)
 TOTAL WALL CLOCK TIME=          6.4 SECONDS, CPU UTILIZATION IS    81.04%
 MEMORY FOR GRID POINT CONTRIBUTIONS TO THE DFT GRADIENT=    136230 WORDS.
 CPU     0: STEP CPU TIME=     0.03 TOTAL CPU TIME=          5.2 (      0.1 MIN)
 TOTAL WALL CLOCK TIME=          6.4 SECONDS, CPU UTILIZATION IS    81.10%
 ...... END OF 2-ELECTRON GRADIENT ......
 CPU     0: STEP CPU TIME=     0.00 TOTAL CPU TIME=          5.2 (      0.1 MIN)
 TOTAL WALL CLOCK TIME=          6.4 SECONDS, CPU UTILIZATION IS    81.10%

 UNITS ARE HARTREE/BOHR    E'X               E'Y               E'Z 
    1 O               -0.001437400      -0.000230236       0.005047623
    2 H               -0.000123682       0.000040964       0.000038357
    3 H                0.001561082       0.000189272      -0.005085981
  $VIB   
          IVIB=   2 IATOM=   3 ICOORD=   3 E=      -76.3418695490
 -1.437400030E-03-2.302355135E-04 5.047623499E-03-1.236816225E-04 4.096354811E-05
  3.835700802E-05 1.561081640E-03 1.892719583E-04-5.085980516E-03
 -1.864987350E+00 1.704948947E+00 1.043127860E+00
 ...... END OF NUMERICAL HESSIAN CALCULATION ......
 CPU     0: STEP CPU TIME=     0.00 TOTAL CPU TIME=          5.2 (      0.1 MIN)
 TOTAL WALL CLOCK TIME=          6.4 SECONDS, CPU UTILIZATION IS    81.10%
 THE HESSIAN MATRIX HAS BEEN PURIFIED

          ---------------
          ENERGY GRADIENT
          ---------------

 UNITS ARE HARTREE/BOHR    E'X               E'Y               E'Z 
    1 O                0.000010490      -0.000014293       0.000008272
    2 H               -0.000009730       0.000013263      -0.000007692
    3 H               -0.000000760       0.000001029      -0.000000579

          -------------------------------
          CARTESIAN FORCE CONSTANT MATRIX
          -------------------------------

                                   1                          2
                               O                          H         
                          X        Y        Z        X        Y        Z
  1   O            X 0.215132-0.223495-0.040616-0.145595 0.192099-0.095848
                   Y-0.223495 0.301569-0.167328 0.204484-0.277277 0.157206
                   Z-0.040616-0.167328 0.640372-0.133247 0.198397-0.155936
  2   H            X-0.145595 0.204484-0.133247 0.140752-0.194661 0.119693
                   Y 0.192099-0.277277 0.198397-0.194661 0.276918-0.188792
                   Z-0.095848 0.157206-0.155936 0.119693-0.188792 0.172011
  3   H            X-0.069537 0.019012 0.173864 0.004843 0.002562-0.023845
                   Y 0.031397-0.024291-0.031069-0.009823 0.000359 0.031586
                   Z 0.136465 0.010122-0.484437 0.013554-0.009605-0.016075

                                   3
                               H         
                          X        Y        Z
  3   H            X 0.064694-0.021574-0.150019
                   Y-0.021574 0.023932-0.000517
                   Z-0.150019-0.000517 0.500512

          ------------------------          ----------------
          DIPOLE DERIVATIVE TENSOR          (DEBYE/ANGSTROM)
          ------------------------          ----------------

        ATOM                 MU-X           MU-Y           MU-Z
     O          D/DX    -1.253866613    1.205228920    0.478144346
                D/DY     1.219866000   -1.367331286    0.119277275
                D/DZ     0.486597881    0.120473266   -1.950458189
     H          D/DX     0.673643485   -0.804728334    0.210074165
                D/DY    -0.620974946    0.843408535   -0.485514440
                D/DZ    -0.365309808    0.129598262    0.767432851
     H          D/DX     0.580223127   -0.400500585   -0.688218511
                D/DY    -0.598891054    0.523922751    0.366237165
                D/DZ    -0.121288073   -0.250071529    1.183025338

          --------------------------------------------------------
          NORMAL COORDINATE ANALYSIS IN THE HARMONIC APPROXIMATION
          --------------------------------------------------------

          ATOMIC WEIGHTS (AMU)

    1     O                15.99491
    2     H                 1.00782
    3     H                 1.00782

 MODES    1 TO    6 ARE TAKEN AS ROTATIONS AND TRANSLATIONS.

 ANALYZING SYMMETRY OF NORMAL MODES...

     FREQUENCIES IN CM**-1, IR INTENSITIES IN DEBYE**2/AMU-ANGSTROM**2,
     REDUCED MASSES IN AMU.

                            1           2           3           4           5
       FREQUENCY:         0.00        0.00        0.00        0.00        0.00  
        SYMMETRY:         A           A           A           A           A   
    REDUCED MASS:      1.12972     5.03555     1.69758     3.57155     1.90808
    IR INTENSITY:      0.00000     0.00000     0.00000     0.00000     0.00000

  1   O            X -0.05874256  0.12391436  0.04240242  0.19193516 -0.03496455
                   Y  0.06108716  0.17398835  0.10105622 -0.10354128  0.01724574
                   Z  0.00413407  0.08799490 -0.12288553  0.01832846  0.17309359
  2   H            X  0.64310177 -0.14087089 -0.10841645  0.44721457  0.02348310
                   Y  0.64573621  0.01735970  0.11271118  0.02238500 -0.12875764
                   Z  0.13839534  0.13068755  0.04868436 -0.05944341 -0.09994375
  3   H            X -0.14094417 -0.18660439  0.63738728  0.15353397  0.19493218
                   Y  0.08847868 -0.27050294  0.35295492  0.06697860  0.61223755
                   Z -0.02395051  0.00000000  0.06552832  0.00000000  0.22946078

 TRANS. SAYVETZ    X -0.43349496  1.65196118  1.21133297  3.67543505 -0.33913051
                   Y  1.71704369  2.52780399  2.08569514 -1.56607053  0.76310716
                   Z  0.18146452  1.53918070 -1.85043658  0.23325349  2.89914697
               TOTAL  1.78019277  3.38937250  3.03999462  4.00197537  3.01701760

   ROT. SAYVETZ    X  0.67067280  0.65804040 -0.20724381 -0.26496612 -1.48074899
                   Y -0.70240006 -0.28294708  1.38374417 -0.37946530  0.13346103
                   Z -1.36678920  0.66902532  0.06353815 -0.50379128 -0.23796884
               TOTAL  1.67668738  0.98013831  1.40061951  0.68411009  1.50567546

                            6           7           8           9
       FREQUENCY:         0.00     1535.62     3832.92     3971.16  
        SYMMETRY:         A           A           A           A   
    REDUCED MASS:      1.16142     1.08297     1.04489     1.08386
    IR INTENSITY:      0.00000     2.91329     0.97358     3.16314

  1   O            X -0.02331896  0.04635123  0.03308344 -0.00825328
                   Y -0.06100097 -0.04238009 -0.03009901  0.02936985
                   Z  0.06752206 -0.02618421 -0.01914211 -0.06123933
  2   H            X -0.14139099 -0.31979534 -0.32754297  0.34199407
                   Y  0.22421161  0.16172415  0.48105435 -0.48717233
                   Z  0.60488423  0.57525184 -0.36327204  0.33368341
  3   H            X  0.46180328 -0.41583217 -0.19751509 -0.21100863
                   Y -0.38195032  0.51087846 -0.00336140  0.02105154
                   Z  0.23852687 -0.15968953  0.66707108  0.63822902

 TRANS. SAYVETZ    X -0.05006519  0.00000000  0.00000000  0.00000000
                   Y -1.13467806 -0.00000000 -0.00000000  0.00000000
                   Z  1.93002008  0.00000000 -0.00000000  0.00000000
               TOTAL  2.23941473  0.00000000  0.00000000  0.00000000

   ROT. SAYVETZ    X  1.46976466 -0.00000000 -0.00000000 -0.00000000
                   Y  1.46376024 -0.00000000 -0.00000000 -0.00000000
                   Z  0.07422924  0.00000000  0.00000000 -0.00000000
               TOTAL  2.07564741  0.00000000  0.00000000  0.00000000

 REFERENCE ON SAYVETZ CONDITIONS - A. SAYVETZ, J.CHEM.PHYS., 7, 383-389(1939).

 NOTE - THE MODES J,K ARE ORTHONORMALIZED ACCORDING TO
 SUM ON I   M(I) * (X(I,J)*X(I,K) + Y(I,J)*Y(I,K) + Z(I,J)*Z(I,K)) = DELTA(J,K)

  MODE FREQ(CM**-1)  SYMMETRY  RED. MASS  IR INTENS.
     1       0.000    A        1.129720    0.000000
     2       0.000    A        5.035550    0.000000
     3       0.000    A        1.697583    0.000000
     4       0.000    A        3.571555    0.000000
     5       0.000    A        1.908085    0.000000
     6       0.000    A        1.161420    0.000000
     7    1535.622    A        1.082975    2.913291
     8    3832.916    A        1.044890    0.973575
     9    3971.165    A        1.083862    3.163140

     -------------------------------
     THERMOCHEMISTRY AT T=  298.15 K
     -------------------------------

 USING IDEAL GAS, RIGID ROTOR, HARMONIC NORMAL MODE APPROXIMATIONS.
 P=  1.01325E+05 PASCAL.
 V=  4.06261E-26 M**3.
 ALL FREQUENCIES ARE SCALED BY   1.00000
 THE MOMENTS OF INERTIA ARE (IN AMU*BOHR**2)
              2.11449             4.27405             6.38853
 THE ROTATIONAL SYMMETRY NUMBER IS  1.0
 THE ROTATIONAL CONSTANTS ARE (IN GHZ)
    852.73117   421.86918   282.23827
      7 -      9 VIBRATIONAL MODES ARE USED IN THERMOCHEMISTRY.
 THE HARMONIC ZERO POINT ENERGY IS (SCALED BY   1.000)
        0.021277 HARTREE/MOLECULE     4669.851147 CM**-1/MOLECULE 
       13.351788 KCAL/MOL               55.863880 KJ/MOL

               Q               LN Q
 ELEC.     1.00000E+00       0.000000
 TRANS.    3.00431E+06      14.915558
 ROT.      8.60130E+01       4.454498
 VIB.      1.00061E+00       0.000605
 TOT.      2.58566E+08      19.370661

              E         H         G         CV        CP        S
           KJ/MOL    KJ/MOL    KJ/MOL   J/MOL-K   J/MOL-K   J/MOL-K
 ELEC.      0.000     0.000     0.000     0.000     0.000     0.000
 TRANS.     3.718     6.197   -36.975    12.472    20.786   144.800
 ROT.       3.718     3.718   -11.042    12.472    12.472    49.508
 VIB.      55.875    55.875    55.862     0.277     0.277     0.042
 TOTAL     63.312    65.791     7.845    25.220    33.534   194.351
 VIB. THERMAL CORRECTION E(T)-E(0) = H(T)-H(0) =        11.119 J/MOL

              E         H         G         CV        CP        S
         KCAL/MOL  KCAL/MOL  KCAL/MOL CAL/MOL-K CAL/MOL-K CAL/MOL-K
 ELEC.      0.000     0.000     0.000     0.000     0.000     0.000
 TRANS.     0.889     1.481    -8.837     2.981     4.968    34.608
 ROT.       0.889     0.889    -2.639     2.981     2.981    11.833
 VIB.      13.354    13.354    13.351     0.066     0.066     0.010
 TOTAL     15.132    15.724     1.875     6.028     8.015    46.451
 VIB. THERMAL CORRECTION E(T)-E(0) = H(T)-H(0) =         2.658 CAL/MOL
 ......END OF NORMAL COORDINATE ANALYSIS......
 CPU     0: STEP CPU TIME=     0.00 TOTAL CPU TIME=          5.2 (      0.1 MIN)
 TOTAL WALL CLOCK TIME=          6.4 SECONDS, CPU UTILIZATION IS    81.10%

             ----------------------------------------------
             -------   RESULTS OF PCM CALCULATION   -------
             ----------------------------------------------

 FREE ENERGY IN SOLVENT = <PSI| H(0)+V/2 |PSI>       =      -76.3418695490 A.U.
 INTERNAL ENERGY IN SOLVENT = <PSI| H(0) |PSI>       =      -76.3288011919 A.U.
 DELTA INTERNAL ENERGY =  <D-PSI| H(0) |D-PSI>       =        0.0000000000 A.U.
 ELECTROSTATIC INTERACTION                           =       -0.0130683570 A.U.
 PIEROTTI CAVITATION ENERGY                          =        0.0000000000 A.U.
 DISPERSION FREE ENERGY                              =        0.0000000000 A.U.
 REPULSION FREE ENERGY                               =        0.0000000000 A.U.
 TOTAL INTERACTION (DELTA + ES + CAV + DISP + REP)   =       -0.0130683570 A.U.
 TOTAL FREE ENERGY IN SOLVENT                        =      -76.3418695490 A.U.

 FREE ENERGY IN SOLVENT       =      -47905.25 KCAL/MOL
 INTERNAL ENERGY IN SOLVENT   =      -47897.05 KCAL/MOL
 DELTA INTERNAL ENERGY        =           0.00 KCAL/MOL
 ELECTROSTATIC INTERACTION    =          -8.20 KCAL/MOL
 PIEROTTI CAVITATION ENERGY   =           0.00 KCAL/MOL
 DISPERSION FREE ENERGY       =           0.00 KCAL/MOL
 REPULSION FREE ENERGY        =           0.00 KCAL/MOL
 TOTAL INTERACTION            =          -8.20 KCAL/MOL
 TOTAL FREE ENERGY IN SOLVENT =      -47905.25 KCAL/MOL

 -INTERNAL ENERGY IN SOLVENT-
    OMITS ES,CAV,DISP,REP (USES SOLVATED ORBITALS IN THE GAS PHASE HAMILTONIAN)
 -FREE ENERGY IN SOLVENT-
    INCLUDES ES+DISP+REP WHICH ARE IN THE SELF-CONSISTENT WAVEFUNCTION.
 -TOTAL FREE ENERGY IN SOLVENT-
    INCLUDES ES+DISP+REP+CAV, MEANING CAVITATION IS NOT IN THE SCF ENERGY.

 .... DONE PRINTING PCM SOLVENT SUMMARY ....
 CPU     0: STEP CPU TIME=     0.00 TOTAL CPU TIME=          5.2 (      0.1 MIN)
 TOTAL WALL CLOCK TIME=          6.4 SECONDS, CPU UTILIZATION IS    81.10%
               918306  WORDS OF DYNAMIC MEMORY USED
 EXECUTION OF GAMESS TERMINATED NORMALLY 14:29:44 12-SEP-2026    
 DDI: 263640 bytes (0.3 MB / 0 MWords) used by master data server.
Note: The following floating-point exceptions are signalling: IEEE_UNDERFLOW_FLAG IEEE_DENORMAL
Note: The following floating-point exceptions are signalling: IEEE_UNDERFLOW_FLAG IEEE_DENORMAL
Note: The following floating-point exceptions are signalling: IEEE_UNDERFLOW_FLAG IEEE_DENORMAL
Note: The following floating-point exceptions are signalling: IEEE_UNDERFLOW_FLAG IEEE_DENORMAL

 ----------------------------------------
 CPU timing information for all processes
 ========================================
 0: 4.459 + 0.957 = 5.417
 1: 4.405 + 2.587 = 6.993
 2: 4.396 + 1.341 = 5.737
 3: 4.383 + 0.777 = 5.161
 4: 4.414 + 1.214 = 5.629
 5: 4.100 + 1.419 = 5.519
 6: 4.350 + 2.999 = 7.349
 7: 4.396 + 2.12 = 6.409
 ----------------------------------------
Note: The following floating-point exceptions are signalling: IEEE_UNDERFLOW_FLAG IEEE_DENORMAL
Note: The following floating-point exceptions are signalling: IEEE_UNDERFLOW_FLAG IEEE_DENORMAL
Note: The following floating-point exceptions are signalling: IEEE_UNDERFLOW_FLAG IEEE_DENORMAL
Note: The following floating-point exceptions are signalling: IEEE_UNDERFLOW_FLAG IEEE_DENORMAL
 ddikick.x: exited gracefully.
unset echo
----- accounting info -----
Files used on the parent node nid006681 were:
-rw-r--r-- 1 darren01 e283   43164 Sep 12 14:29 /work/e283/e283/darren01/gamess/restart/aa002-water-bare.dat
-rw-r--r-- 1 darren01 e283    2026 Sep 12 14:29 /work/e283/e283/darren01/gamess/restart/aa002-water-bare.F05
-rw-r--r-- 1 darren01 e283  180016 Sep 12 14:29 /work/e283/e283/darren01/gamess/restart/aa002-water-bare.F08
-rw-r--r-- 1 darren01 e283  180016 Sep 12 14:29 /work/e283/e283/darren01/gamess/restart/aa002-water-bare.F08.001
-rw-r--r-- 1 darren01 e283  180016 Sep 12 14:29 /work/e283/e283/darren01/gamess/restart/aa002-water-bare.F08.002
-rw-r--r-- 1 darren01 e283  180016 Sep 12 14:29 /work/e283/e283/darren01/gamess/restart/aa002-water-bare.F08.003
-rw-r--r-- 1 darren01 e283  180016 Sep 12 14:29 /work/e283/e283/darren01/gamess/restart/aa002-water-bare.F08.004
-rw-r--r-- 1 darren01 e283  180016 Sep 12 14:29 /work/e283/e283/darren01/gamess/restart/aa002-water-bare.F08.005
-rw-r--r-- 1 darren01 e283  180016 Sep 12 14:29 /work/e283/e283/darren01/gamess/restart/aa002-water-bare.F08.006
-rw-r--r-- 1 darren01 e283  180016 Sep 12 14:29 /work/e283/e283/darren01/gamess/restart/aa002-water-bare.F08.007
-rw-r--r-- 1 darren01 e283 2355840 Sep 12 14:29 /work/e283/e283/darren01/gamess/restart/aa002-water-bare.F10
-rw-r--r-- 1 darren01 e283  180016 Sep 12 14:29 /work/e283/e283/darren01/gamess/restart/aa002-water-bare.F21
-rw-r--r-- 1 darren01 e283  180016 Sep 12 14:29 /work/e283/e283/darren01/gamess/restart/aa002-water-bare.F21.001
-rw-r--r-- 1 darren01 e283  180016 Sep 12 14:29 /work/e283/e283/darren01/gamess/restart/aa002-water-bare.F21.002
-rw-r--r-- 1 darren01 e283  180016 Sep 12 14:29 /work/e283/e283/darren01/gamess/restart/aa002-water-bare.F21.003
-rw-r--r-- 1 darren01 e283  180016 Sep 12 14:29 /work/e283/e283/darren01/gamess/restart/aa002-water-bare.F21.004
-rw-r--r-- 1 darren01 e283  180016 Sep 12 14:29 /work/e283/e283/darren01/gamess/restart/aa002-water-bare.F21.005
-rw-r--r-- 1 darren01 e283  180016 Sep 12 14:29 /work/e283/e283/darren01/gamess/restart/aa002-water-bare.F21.006
-rw-r--r-- 1 darren01 e283  180016 Sep 12 14:29 /work/e283/e283/darren01/gamess/restart/aa002-water-bare.F21.007
-rw-r--r-- 1 darren01 e283 1066896 Sep 12 14:29 /work/e283/e283/darren01/gamess/restart/aa002-water-bare.F22
-rw-r--r-- 1 darren01 e283 1066896 Sep 12 14:29 /work/e283/e283/darren01/gamess/restart/aa002-water-bare.F22.001
-rw-r--r-- 1 darren01 e283 1066896 Sep 12 14:29 /work/e283/e283/darren01/gamess/restart/aa002-water-bare.F22.002
-rw-r--r-- 1 darren01 e283 1066896 Sep 12 14:29 /work/e283/e283/darren01/gamess/restart/aa002-water-bare.F22.003
-rw-r--r-- 1 darren01 e283 1066896 Sep 12 14:29 /work/e283/e283/darren01/gamess/restart/aa002-water-bare.F22.004
-rw-r--r-- 1 darren01 e283 1066896 Sep 12 14:29 /work/e283/e283/darren01/gamess/restart/aa002-water-bare.F22.005
-rw-r--r-- 1 darren01 e283 1066896 Sep 12 14:29 /work/e283/e283/darren01/gamess/restart/aa002-water-bare.F22.006
-rw-r--r-- 1 darren01 e283 1066896 Sep 12 14:29 /work/e283/e283/darren01/gamess/restart/aa002-water-bare.F22.007
-rw-r--r-- 1 darren01 e283       8 Sep 12 14:29 /work/e283/e283/darren01/gamess/restart/aa002-water-bare.F26
-rw-r--r-- 1 darren01 e283       0 Sep 12 14:29 /work/e283/e283/darren01/gamess/restart/aa002-water-bare.F27
-rw-r--r-- 1 darren01 e283    5085 Sep 12 14:29 /work/e283/e283/darren01/gamess/restart/aa002-water-bare.rst
ls: No match.
ls: No match.
ls: No match.
Sat 12 Sep 2026 02:29:45 PM BST
0.262u 0.119s 0:17.44 2.1%	0+0k 436+48io 9pf+0w
